&control
   prefix = 'BN'
   calculation = 'bands'
   restart_mode = 'from_scratch'
   wf_collect = .true.
   tstress = .true.
   tprnfor = .true.
   outdir = './'
   wfcdir = './'
   pseudo_dir = './'
   verbosity = 'high'
/
&system
   ibrav = 0
   celldm(1) = 4.731873875
   nat = 2
   ntyp = 2
   nbnd = 4010
   ecutwfc = 70.0
/
&electrons
   electron_maxstep = 500
   conv_thr = 1.0d-10
   mixing_mode = 'plain'
   mixing_beta = 0.7
   mixing_ndim = 8
   diagonalization = 'cg'
   diago_david_ndim = 4
   diago_full_acc = .true.
/
CELL_PARAMETERS
   1.0000000000   0.0000000000   0.0000000000 
  -0.5000000000   0.8660254038   0.0000000000 
   0.0000000000   0.0000000000   8.0000000000 
&ions
/
&cell
/
ATOMIC_SPECIES
   B  10.811   b.cpi.UPF
   N  14.007   n.cpi.UPF

ATOMIC_POSITIONS (crystal)
B       0.33333333333333   0.66666666666667   0.500000000
N       0.66666666666667   0.33333333333333   0.500000000

K_POINTS crystal
   78
  0.041666667  0.041666667  0.000000000   2.0
  0.041666667  0.125000000  0.000000000   2.0
  0.041666667  0.208333333  0.000000000   2.0
  0.041666667  0.291666667  0.000000000   2.0
  0.041666667  0.375000000  0.000000000   2.0
  0.041666667  0.458333333  0.000000000   2.0
  0.041666667  0.541666667  0.000000000   2.0
  0.041666667  0.625000000  0.000000000   2.0
  0.041666667  0.708333333  0.000000000   2.0
  0.041666667  0.791666667  0.000000000   2.0
  0.041666667  0.875000000  0.000000000   2.0
  0.041666667  0.958333333  0.000000000   1.0
  0.125000000  0.041666667  0.000000000   2.0
  0.125000000  0.125000000  0.000000000   2.0
  0.125000000  0.208333333  0.000000000   2.0
  0.125000000  0.291666667  0.000000000   2.0
  0.125000000  0.375000000  0.000000000   2.0
  0.125000000  0.458333333  0.000000000   2.0
  0.125000000  0.541666667  0.000000000   2.0
  0.125000000  0.625000000  0.000000000   2.0
  0.125000000  0.708333333  0.000000000   2.0
  0.125000000  0.791666667  0.000000000   2.0
  0.125000000  0.875000000  0.000000000   1.0
  0.208333333  0.041666667  0.000000000   2.0
  0.208333333  0.125000000  0.000000000   2.0
  0.208333333  0.208333333  0.000000000   2.0
  0.208333333  0.291666667  0.000000000   2.0
  0.208333333  0.375000000  0.000000000   2.0
  0.208333333  0.458333333  0.000000000   2.0
  0.208333333  0.541666667  0.000000000   2.0
  0.208333333  0.625000000  0.000000000   2.0
  0.208333333  0.708333333  0.000000000   2.0
  0.208333333  0.791666667  0.000000000   1.0
  0.291666667  0.041666667  0.000000000   2.0
  0.291666667  0.125000000  0.000000000   2.0
  0.291666667  0.208333333  0.000000000   2.0
  0.291666667  0.291666667  0.000000000   2.0
  0.291666667  0.375000000  0.000000000   2.0
  0.291666667  0.458333333  0.000000000   2.0
  0.291666667  0.541666667  0.000000000   2.0
  0.291666667  0.625000000  0.000000000   2.0
  0.291666667  0.708333333  0.000000000   1.0
  0.375000000  0.041666667  0.000000000   2.0
  0.375000000  0.125000000  0.000000000   2.0
  0.375000000  0.208333333  0.000000000   2.0
  0.375000000  0.291666667  0.000000000   2.0
  0.375000000  0.375000000  0.000000000   2.0
  0.375000000  0.458333333  0.000000000   2.0
  0.375000000  0.541666667  0.000000000   2.0
  0.375000000  0.625000000  0.000000000   1.0
  0.458333333  0.041666667  0.000000000   2.0
  0.458333333  0.125000000  0.000000000   2.0
  0.458333333  0.208333333  0.000000000   2.0
  0.458333333  0.291666667  0.000000000   2.0
  0.458333333  0.375000000  0.000000000   2.0
  0.458333333  0.458333333  0.000000000   2.0
  0.458333333  0.541666667  0.000000000   1.0
  0.541666667  0.041666667  0.000000000   2.0
  0.541666667  0.125000000  0.000000000   2.0
  0.541666667  0.208333333  0.000000000   2.0
  0.541666667  0.291666667  0.000000000   2.0
  0.541666667  0.375000000  0.000000000   2.0
  0.541666667  0.458333333  0.000000000   1.0
  0.625000000  0.041666667  0.000000000   2.0
  0.625000000  0.125000000  0.000000000   2.0
  0.625000000  0.208333333  0.000000000   2.0
  0.625000000  0.291666667  0.000000000   2.0
  0.625000000  0.375000000  0.000000000   1.0
  0.708333333  0.041666667  0.000000000   2.0
  0.708333333  0.125000000  0.000000000   2.0
  0.708333333  0.208333333  0.000000000   2.0
  0.708333333  0.291666667  0.000000000   1.0
  0.791666667  0.041666667  0.000000000   2.0
  0.791666667  0.125000000  0.000000000   2.0
  0.791666667  0.208333333  0.000000000   1.0
  0.875000000  0.041666667  0.000000000   2.0
  0.875000000  0.125000000  0.000000000   1.0
  0.958333333  0.041666667  0.000000000   1.0
