&control
   prefix = 'BN'
   calculation = 'bands'
   restart_mode = 'from_scratch'
   wf_collect = .true.
   tstress = .true.
   tprnfor = .true.
   outdir = './'
   wfcdir = './'
   pseudo_dir = './'
   verbosity = 'high'
/
&system
   ibrav = 0
   celldm(1) = 4.731873875
   nat = 2
   ntyp = 2
   nbnd = 4010
   ecutwfc = 70.0
/
&electrons
   electron_maxstep = 500
   conv_thr = 1.0d-10
   mixing_mode = 'plain'
   mixing_beta = 0.7
   mixing_ndim = 8
   diagonalization = 'cg'
   diago_david_ndim = 4
   diago_full_acc = .true.
/
CELL_PARAMETERS
   1.0000000000   0.0000000000   0.0000000000 
  -0.5000000000   0.8660254038   0.0000000000 
   0.0000000000   0.0000000000   8.0000000000 
&ions
/
&cell
/
ATOMIC_SPECIES
   B  10.811   b.cpi.UPF
   N  14.007   n.cpi.UPF

ATOMIC_POSITIONS (crystal)
B       0.33333333333333   0.66666666666667   0.500000000
N       0.66666666666667   0.33333333333333   0.500000000

K_POINTS crystal
   31
  0.000000000  0.000000000  0.000000000   1.0
  0.000000000  0.083333333  0.000000000   3.0
  0.000000000  0.166666667  0.000000000   3.0
  0.000000000  0.250000000  0.000000000   3.0
  0.000000000  0.333333333  0.000000000   3.0
  0.000000000  0.416666667  0.000000000   3.0
  0.000000000  0.500000000  0.000000000   3.0
  0.000000000  0.583333333  0.000000000   3.0
  0.000000000  0.666666667  0.000000000   3.0
  0.000000000  0.750000000  0.000000000   3.0
  0.000000000  0.833333333  0.000000000   3.0
  0.000000000  0.916666667  0.000000000   3.0
  0.083333333  0.083333333  0.000000000   6.0
  0.083333333  0.166666667  0.000000000   6.0
  0.083333333  0.250000000  0.000000000   6.0
  0.083333333  0.333333333  0.000000000   6.0
  0.083333333  0.416666667  0.000000000   6.0
  0.083333333  0.500000000  0.000000000   6.0
  0.083333333  0.583333333  0.000000000   6.0
  0.083333333  0.666666667  0.000000000   6.0
  0.083333333  0.750000000  0.000000000   6.0
  0.166666667  0.166666667  0.000000000   6.0
  0.166666667  0.250000000  0.000000000   6.0
  0.166666667  0.333333333  0.000000000   6.0
  0.166666667  0.416666667  0.000000000   6.0
  0.166666667  0.500000000  0.000000000   6.0
  0.166666667  0.583333333  0.000000000   6.0
  0.250000000  0.250000000  0.000000000   6.0
  0.250000000  0.333333333  0.000000000   6.0
  0.250000000  0.416666667  0.000000000   6.0
  0.333333333  0.333333333  0.000000000   2.0
