&control
   prefix = 'BN'
   calculation = 'bands'
   restart_mode = 'from_scratch'
   wf_collect = .true.
   tstress = .true.
   tprnfor = .true.
   outdir = './'
   wfcdir = './'
   pseudo_dir = './'
   verbosity = 'high'
/
&system
   ibrav = 4
   celldm(1) = 4.731873875
   celldm(3) = 2.66022364217
   nat = 4
   ntyp = 2
   nbnd = 820
   ecutwfc = 70.0
/
&electrons
   electron_maxstep = 500
   conv_thr = 1.0d-10
   mixing_mode = 'plain'
   mixing_beta = 0.7
   mixing_ndim = 8
   diagonalization = 'cg'
   diago_david_ndim = 4
   diago_full_acc = .true.
/
&ions
/
&cell
/
ATOMIC_SPECIES
   B  10.811   b.cpi.UPF
   N  14.007   n.cpi.UPF

ATOMIC_POSITIONS (crystal)
B       0.333333333   0.666666667   0.250000000
B       0.666666667   0.333333333   0.500000000
N       0.333333333   0.666666667   0.750000000
N       0.666666667   0.333333333   0.250000000

K_POINTS crystal
   76
  0.000000000  0.000000000  0.000000000   1.0
  0.000000000  0.000000000  0.166666667   2.0
  0.000000000  0.000000000  0.333333333   2.0
  0.000000000  0.000000000  0.500000000   1.0
  0.000000000  0.083333333  0.000000000   6.0
  0.000000000  0.083333333  0.166666667  12.0
  0.000000000  0.083333333  0.333333333  12.0
  0.000000000  0.083333333  0.500000000   6.0
  0.000000000  0.166666667  0.000000000   6.0
  0.000000000  0.166666667  0.166666667  12.0
  0.000000000  0.166666667  0.333333333  12.0
  0.000000000  0.166666667  0.500000000   6.0
  0.000000000  0.250000000  0.000000000   6.0
  0.000000000  0.250000000  0.166666667  12.0
  0.000000000  0.250000000  0.333333333  12.0
  0.000000000  0.250000000  0.500000000   6.0
  0.000000000  0.333333333  0.000000000   6.0
  0.000000000  0.333333333  0.166666667  12.0
  0.000000000  0.333333333  0.333333333  12.0
  0.000000000  0.333333333  0.500000000   6.0
  0.000000000  0.416666667  0.000000000   6.0
  0.000000000  0.416666667  0.166666667  12.0
  0.000000000  0.416666667  0.333333333  12.0
  0.000000000  0.416666667  0.500000000   6.0
  0.000000000  0.500000000  0.000000000   3.0
  0.000000000  0.500000000  0.166666667   6.0
  0.000000000  0.500000000  0.333333333   6.0
  0.000000000  0.500000000  0.500000000   3.0
  0.083333333  0.083333333  0.000000000   6.0
  0.083333333  0.083333333  0.166666667  12.0
  0.083333333  0.083333333  0.333333333  12.0
  0.083333333  0.083333333  0.500000000   6.0
  0.083333333  0.166666667  0.000000000  12.0
  0.083333333  0.166666667  0.166666667  24.0
  0.083333333  0.166666667  0.333333333  24.0
  0.083333333  0.166666667  0.500000000  12.0
  0.083333333  0.250000000  0.000000000  12.0
  0.083333333  0.250000000  0.166666667  24.0
  0.083333333  0.250000000  0.333333333  24.0
  0.083333333  0.250000000  0.500000000  12.0
  0.083333333  0.333333333  0.000000000  12.0
  0.083333333  0.333333333  0.166666667  24.0
  0.083333333  0.333333333  0.333333333  24.0
  0.083333333  0.333333333  0.500000000  12.0
  0.083333333  0.416666667  0.000000000  12.0
  0.083333333  0.416666667  0.166666667  24.0
  0.083333333  0.416666667  0.333333333  24.0
  0.083333333  0.416666667  0.500000000  12.0
  0.166666667  0.166666667  0.000000000   6.0
  0.166666667  0.166666667  0.166666667  12.0
  0.166666667  0.166666667  0.333333333  12.0
  0.166666667  0.166666667  0.500000000   6.0
  0.166666667  0.250000000  0.000000000  12.0
  0.166666667  0.250000000  0.166666667  24.0
  0.166666667  0.250000000  0.333333333  24.0
  0.166666667  0.250000000  0.500000000  12.0
  0.166666667  0.333333333  0.000000000  12.0
  0.166666667  0.333333333  0.166666667  24.0
  0.166666667  0.333333333  0.333333333  24.0
  0.166666667  0.333333333  0.500000000  12.0
  0.166666667  0.416666667  0.000000000   6.0
  0.166666667  0.416666667  0.166666667  12.0
  0.166666667  0.416666667  0.333333333  12.0
  0.166666667  0.416666667  0.500000000   6.0
  0.250000000  0.250000000  0.000000000   6.0
  0.250000000  0.250000000  0.166666667  12.0
  0.250000000  0.250000000  0.333333333  12.0
  0.250000000  0.250000000  0.500000000   6.0
  0.250000000  0.333333333  0.000000000  12.0
  0.250000000  0.333333333  0.166666667  24.0
  0.250000000  0.333333333  0.333333333  24.0
  0.250000000  0.333333333  0.500000000  12.0
  0.333333333  0.333333333  0.000000000   2.0
  0.333333333  0.333333333  0.166666667   4.0
  0.333333333  0.333333333  0.333333333   4.0
  0.333333333  0.333333333  0.500000000   2.0
