&control
   prefix = 'BN'
   calculation = 'nscf'
   restart_mode = 'from_scratch'
   wf_collect = .true.
   tstress = .true.
   tprnfor = .true.
   outdir = './'
   wfcdir = './'
   pseudo_dir = './'
   verbosity = 'high'
/
&system
   ibrav = 4
   celldm(1) = 4.731873875
   celldm(3) = 2.66022364217
   nat = 4
   ntyp = 2
   nbnd = 40
   ecutwfc = 70.0
/
&electrons
   electron_maxstep = 500
   conv_thr = 1.0d-10
   mixing_mode = 'plain'
   mixing_beta = 0.7
   mixing_ndim = 8
   diagonalization = 'david'
   diago_david_ndim = 4
   diago_full_acc = .true.
/
&ions
/
&cell
/
ATOMIC_SPECIES
   B  10.811   b.cpi.UPF
   N  14.007   n.cpi.UPF

ATOMIC_POSITIONS (crystal)
B       0.333333333   0.666666667   0.250000000
B       0.666666667   0.333333333   0.750000000
N       0.333333333   0.666666667   0.750000000
N       0.666666667   0.333333333   0.250000000

K_POINTS crystal
864
  0.00000000  0.00000000  0.00000000  1.157407e-03 
  0.00000000  0.00000000  0.16666667  1.157407e-03 
  0.00000000  0.00000000  0.33333333  1.157407e-03 
  0.00000000  0.00000000  0.50000000  1.157407e-03 
  0.00000000  0.00000000  0.66666667  1.157407e-03 
  0.00000000  0.00000000  0.83333333  1.157407e-03 
  0.00000000  0.08333333  0.00000000  1.157407e-03 
  0.00000000  0.08333333  0.16666667  1.157407e-03 
  0.00000000  0.08333333  0.33333333  1.157407e-03 
  0.00000000  0.08333333  0.50000000  1.157407e-03 
  0.00000000  0.08333333  0.66666667  1.157407e-03 
  0.00000000  0.08333333  0.83333333  1.157407e-03 
  0.00000000  0.16666667  0.00000000  1.157407e-03 
  0.00000000  0.16666667  0.16666667  1.157407e-03 
  0.00000000  0.16666667  0.33333333  1.157407e-03 
  0.00000000  0.16666667  0.50000000  1.157407e-03 
  0.00000000  0.16666667  0.66666667  1.157407e-03 
  0.00000000  0.16666667  0.83333333  1.157407e-03 
  0.00000000  0.25000000  0.00000000  1.157407e-03 
  0.00000000  0.25000000  0.16666667  1.157407e-03 
  0.00000000  0.25000000  0.33333333  1.157407e-03 
  0.00000000  0.25000000  0.50000000  1.157407e-03 
  0.00000000  0.25000000  0.66666667  1.157407e-03 
  0.00000000  0.25000000  0.83333333  1.157407e-03 
  0.00000000  0.33333333  0.00000000  1.157407e-03 
  0.00000000  0.33333333  0.16666667  1.157407e-03 
  0.00000000  0.33333333  0.33333333  1.157407e-03 
  0.00000000  0.33333333  0.50000000  1.157407e-03 
  0.00000000  0.33333333  0.66666667  1.157407e-03 
  0.00000000  0.33333333  0.83333333  1.157407e-03 
  0.00000000  0.41666667  0.00000000  1.157407e-03 
  0.00000000  0.41666667  0.16666667  1.157407e-03 
  0.00000000  0.41666667  0.33333333  1.157407e-03 
  0.00000000  0.41666667  0.50000000  1.157407e-03 
  0.00000000  0.41666667  0.66666667  1.157407e-03 
  0.00000000  0.41666667  0.83333333  1.157407e-03 
  0.00000000  0.50000000  0.00000000  1.157407e-03 
  0.00000000  0.50000000  0.16666667  1.157407e-03 
  0.00000000  0.50000000  0.33333333  1.157407e-03 
  0.00000000  0.50000000  0.50000000  1.157407e-03 
  0.00000000  0.50000000  0.66666667  1.157407e-03 
  0.00000000  0.50000000  0.83333333  1.157407e-03 
  0.00000000  0.58333333  0.00000000  1.157407e-03 
  0.00000000  0.58333333  0.16666667  1.157407e-03 
  0.00000000  0.58333333  0.33333333  1.157407e-03 
  0.00000000  0.58333333  0.50000000  1.157407e-03 
  0.00000000  0.58333333  0.66666667  1.157407e-03 
  0.00000000  0.58333333  0.83333333  1.157407e-03 
  0.00000000  0.66666667  0.00000000  1.157407e-03 
  0.00000000  0.66666667  0.16666667  1.157407e-03 
  0.00000000  0.66666667  0.33333333  1.157407e-03 
  0.00000000  0.66666667  0.50000000  1.157407e-03 
  0.00000000  0.66666667  0.66666667  1.157407e-03 
  0.00000000  0.66666667  0.83333333  1.157407e-03 
  0.00000000  0.75000000  0.00000000  1.157407e-03 
  0.00000000  0.75000000  0.16666667  1.157407e-03 
  0.00000000  0.75000000  0.33333333  1.157407e-03 
  0.00000000  0.75000000  0.50000000  1.157407e-03 
  0.00000000  0.75000000  0.66666667  1.157407e-03 
  0.00000000  0.75000000  0.83333333  1.157407e-03 
  0.00000000  0.83333333  0.00000000  1.157407e-03 
  0.00000000  0.83333333  0.16666667  1.157407e-03 
  0.00000000  0.83333333  0.33333333  1.157407e-03 
  0.00000000  0.83333333  0.50000000  1.157407e-03 
  0.00000000  0.83333333  0.66666667  1.157407e-03 
  0.00000000  0.83333333  0.83333333  1.157407e-03 
  0.00000000  0.91666667  0.00000000  1.157407e-03 
  0.00000000  0.91666667  0.16666667  1.157407e-03 
  0.00000000  0.91666667  0.33333333  1.157407e-03 
  0.00000000  0.91666667  0.50000000  1.157407e-03 
  0.00000000  0.91666667  0.66666667  1.157407e-03 
  0.00000000  0.91666667  0.83333333  1.157407e-03 
  0.08333333  0.00000000  0.00000000  1.157407e-03 
  0.08333333  0.00000000  0.16666667  1.157407e-03 
  0.08333333  0.00000000  0.33333333  1.157407e-03 
  0.08333333  0.00000000  0.50000000  1.157407e-03 
  0.08333333  0.00000000  0.66666667  1.157407e-03 
  0.08333333  0.00000000  0.83333333  1.157407e-03 
  0.08333333  0.08333333  0.00000000  1.157407e-03 
  0.08333333  0.08333333  0.16666667  1.157407e-03 
  0.08333333  0.08333333  0.33333333  1.157407e-03 
  0.08333333  0.08333333  0.50000000  1.157407e-03 
  0.08333333  0.08333333  0.66666667  1.157407e-03 
  0.08333333  0.08333333  0.83333333  1.157407e-03 
  0.08333333  0.16666667  0.00000000  1.157407e-03 
  0.08333333  0.16666667  0.16666667  1.157407e-03 
  0.08333333  0.16666667  0.33333333  1.157407e-03 
  0.08333333  0.16666667  0.50000000  1.157407e-03 
  0.08333333  0.16666667  0.66666667  1.157407e-03 
  0.08333333  0.16666667  0.83333333  1.157407e-03 
  0.08333333  0.25000000  0.00000000  1.157407e-03 
  0.08333333  0.25000000  0.16666667  1.157407e-03 
  0.08333333  0.25000000  0.33333333  1.157407e-03 
  0.08333333  0.25000000  0.50000000  1.157407e-03 
  0.08333333  0.25000000  0.66666667  1.157407e-03 
  0.08333333  0.25000000  0.83333333  1.157407e-03 
  0.08333333  0.33333333  0.00000000  1.157407e-03 
  0.08333333  0.33333333  0.16666667  1.157407e-03 
  0.08333333  0.33333333  0.33333333  1.157407e-03 
  0.08333333  0.33333333  0.50000000  1.157407e-03 
  0.08333333  0.33333333  0.66666667  1.157407e-03 
  0.08333333  0.33333333  0.83333333  1.157407e-03 
  0.08333333  0.41666667  0.00000000  1.157407e-03 
  0.08333333  0.41666667  0.16666667  1.157407e-03 
  0.08333333  0.41666667  0.33333333  1.157407e-03 
  0.08333333  0.41666667  0.50000000  1.157407e-03 
  0.08333333  0.41666667  0.66666667  1.157407e-03 
  0.08333333  0.41666667  0.83333333  1.157407e-03 
  0.08333333  0.50000000  0.00000000  1.157407e-03 
  0.08333333  0.50000000  0.16666667  1.157407e-03 
  0.08333333  0.50000000  0.33333333  1.157407e-03 
  0.08333333  0.50000000  0.50000000  1.157407e-03 
  0.08333333  0.50000000  0.66666667  1.157407e-03 
  0.08333333  0.50000000  0.83333333  1.157407e-03 
  0.08333333  0.58333333  0.00000000  1.157407e-03 
  0.08333333  0.58333333  0.16666667  1.157407e-03 
  0.08333333  0.58333333  0.33333333  1.157407e-03 
  0.08333333  0.58333333  0.50000000  1.157407e-03 
  0.08333333  0.58333333  0.66666667  1.157407e-03 
  0.08333333  0.58333333  0.83333333  1.157407e-03 
  0.08333333  0.66666667  0.00000000  1.157407e-03 
  0.08333333  0.66666667  0.16666667  1.157407e-03 
  0.08333333  0.66666667  0.33333333  1.157407e-03 
  0.08333333  0.66666667  0.50000000  1.157407e-03 
  0.08333333  0.66666667  0.66666667  1.157407e-03 
  0.08333333  0.66666667  0.83333333  1.157407e-03 
  0.08333333  0.75000000  0.00000000  1.157407e-03 
  0.08333333  0.75000000  0.16666667  1.157407e-03 
  0.08333333  0.75000000  0.33333333  1.157407e-03 
  0.08333333  0.75000000  0.50000000  1.157407e-03 
  0.08333333  0.75000000  0.66666667  1.157407e-03 
  0.08333333  0.75000000  0.83333333  1.157407e-03 
  0.08333333  0.83333333  0.00000000  1.157407e-03 
  0.08333333  0.83333333  0.16666667  1.157407e-03 
  0.08333333  0.83333333  0.33333333  1.157407e-03 
  0.08333333  0.83333333  0.50000000  1.157407e-03 
  0.08333333  0.83333333  0.66666667  1.157407e-03 
  0.08333333  0.83333333  0.83333333  1.157407e-03 
  0.08333333  0.91666667  0.00000000  1.157407e-03 
  0.08333333  0.91666667  0.16666667  1.157407e-03 
  0.08333333  0.91666667  0.33333333  1.157407e-03 
  0.08333333  0.91666667  0.50000000  1.157407e-03 
  0.08333333  0.91666667  0.66666667  1.157407e-03 
  0.08333333  0.91666667  0.83333333  1.157407e-03 
  0.16666667  0.00000000  0.00000000  1.157407e-03 
  0.16666667  0.00000000  0.16666667  1.157407e-03 
  0.16666667  0.00000000  0.33333333  1.157407e-03 
  0.16666667  0.00000000  0.50000000  1.157407e-03 
  0.16666667  0.00000000  0.66666667  1.157407e-03 
  0.16666667  0.00000000  0.83333333  1.157407e-03 
  0.16666667  0.08333333  0.00000000  1.157407e-03 
  0.16666667  0.08333333  0.16666667  1.157407e-03 
  0.16666667  0.08333333  0.33333333  1.157407e-03 
  0.16666667  0.08333333  0.50000000  1.157407e-03 
  0.16666667  0.08333333  0.66666667  1.157407e-03 
  0.16666667  0.08333333  0.83333333  1.157407e-03 
  0.16666667  0.16666667  0.00000000  1.157407e-03 
  0.16666667  0.16666667  0.16666667  1.157407e-03 
  0.16666667  0.16666667  0.33333333  1.157407e-03 
  0.16666667  0.16666667  0.50000000  1.157407e-03 
  0.16666667  0.16666667  0.66666667  1.157407e-03 
  0.16666667  0.16666667  0.83333333  1.157407e-03 
  0.16666667  0.25000000  0.00000000  1.157407e-03 
  0.16666667  0.25000000  0.16666667  1.157407e-03 
  0.16666667  0.25000000  0.33333333  1.157407e-03 
  0.16666667  0.25000000  0.50000000  1.157407e-03 
  0.16666667  0.25000000  0.66666667  1.157407e-03 
  0.16666667  0.25000000  0.83333333  1.157407e-03 
  0.16666667  0.33333333  0.00000000  1.157407e-03 
  0.16666667  0.33333333  0.16666667  1.157407e-03 
  0.16666667  0.33333333  0.33333333  1.157407e-03 
  0.16666667  0.33333333  0.50000000  1.157407e-03 
  0.16666667  0.33333333  0.66666667  1.157407e-03 
  0.16666667  0.33333333  0.83333333  1.157407e-03 
  0.16666667  0.41666667  0.00000000  1.157407e-03 
  0.16666667  0.41666667  0.16666667  1.157407e-03 
  0.16666667  0.41666667  0.33333333  1.157407e-03 
  0.16666667  0.41666667  0.50000000  1.157407e-03 
  0.16666667  0.41666667  0.66666667  1.157407e-03 
  0.16666667  0.41666667  0.83333333  1.157407e-03 
  0.16666667  0.50000000  0.00000000  1.157407e-03 
  0.16666667  0.50000000  0.16666667  1.157407e-03 
  0.16666667  0.50000000  0.33333333  1.157407e-03 
  0.16666667  0.50000000  0.50000000  1.157407e-03 
  0.16666667  0.50000000  0.66666667  1.157407e-03 
  0.16666667  0.50000000  0.83333333  1.157407e-03 
  0.16666667  0.58333333  0.00000000  1.157407e-03 
  0.16666667  0.58333333  0.16666667  1.157407e-03 
  0.16666667  0.58333333  0.33333333  1.157407e-03 
  0.16666667  0.58333333  0.50000000  1.157407e-03 
  0.16666667  0.58333333  0.66666667  1.157407e-03 
  0.16666667  0.58333333  0.83333333  1.157407e-03 
  0.16666667  0.66666667  0.00000000  1.157407e-03 
  0.16666667  0.66666667  0.16666667  1.157407e-03 
  0.16666667  0.66666667  0.33333333  1.157407e-03 
  0.16666667  0.66666667  0.50000000  1.157407e-03 
  0.16666667  0.66666667  0.66666667  1.157407e-03 
  0.16666667  0.66666667  0.83333333  1.157407e-03 
  0.16666667  0.75000000  0.00000000  1.157407e-03 
  0.16666667  0.75000000  0.16666667  1.157407e-03 
  0.16666667  0.75000000  0.33333333  1.157407e-03 
  0.16666667  0.75000000  0.50000000  1.157407e-03 
  0.16666667  0.75000000  0.66666667  1.157407e-03 
  0.16666667  0.75000000  0.83333333  1.157407e-03 
  0.16666667  0.83333333  0.00000000  1.157407e-03 
  0.16666667  0.83333333  0.16666667  1.157407e-03 
  0.16666667  0.83333333  0.33333333  1.157407e-03 
  0.16666667  0.83333333  0.50000000  1.157407e-03 
  0.16666667  0.83333333  0.66666667  1.157407e-03 
  0.16666667  0.83333333  0.83333333  1.157407e-03 
  0.16666667  0.91666667  0.00000000  1.157407e-03 
  0.16666667  0.91666667  0.16666667  1.157407e-03 
  0.16666667  0.91666667  0.33333333  1.157407e-03 
  0.16666667  0.91666667  0.50000000  1.157407e-03 
  0.16666667  0.91666667  0.66666667  1.157407e-03 
  0.16666667  0.91666667  0.83333333  1.157407e-03 
  0.25000000  0.00000000  0.00000000  1.157407e-03 
  0.25000000  0.00000000  0.16666667  1.157407e-03 
  0.25000000  0.00000000  0.33333333  1.157407e-03 
  0.25000000  0.00000000  0.50000000  1.157407e-03 
  0.25000000  0.00000000  0.66666667  1.157407e-03 
  0.25000000  0.00000000  0.83333333  1.157407e-03 
  0.25000000  0.08333333  0.00000000  1.157407e-03 
  0.25000000  0.08333333  0.16666667  1.157407e-03 
  0.25000000  0.08333333  0.33333333  1.157407e-03 
  0.25000000  0.08333333  0.50000000  1.157407e-03 
  0.25000000  0.08333333  0.66666667  1.157407e-03 
  0.25000000  0.08333333  0.83333333  1.157407e-03 
  0.25000000  0.16666667  0.00000000  1.157407e-03 
  0.25000000  0.16666667  0.16666667  1.157407e-03 
  0.25000000  0.16666667  0.33333333  1.157407e-03 
  0.25000000  0.16666667  0.50000000  1.157407e-03 
  0.25000000  0.16666667  0.66666667  1.157407e-03 
  0.25000000  0.16666667  0.83333333  1.157407e-03 
  0.25000000  0.25000000  0.00000000  1.157407e-03 
  0.25000000  0.25000000  0.16666667  1.157407e-03 
  0.25000000  0.25000000  0.33333333  1.157407e-03 
  0.25000000  0.25000000  0.50000000  1.157407e-03 
  0.25000000  0.25000000  0.66666667  1.157407e-03 
  0.25000000  0.25000000  0.83333333  1.157407e-03 
  0.25000000  0.33333333  0.00000000  1.157407e-03 
  0.25000000  0.33333333  0.16666667  1.157407e-03 
  0.25000000  0.33333333  0.33333333  1.157407e-03 
  0.25000000  0.33333333  0.50000000  1.157407e-03 
  0.25000000  0.33333333  0.66666667  1.157407e-03 
  0.25000000  0.33333333  0.83333333  1.157407e-03 
  0.25000000  0.41666667  0.00000000  1.157407e-03 
  0.25000000  0.41666667  0.16666667  1.157407e-03 
  0.25000000  0.41666667  0.33333333  1.157407e-03 
  0.25000000  0.41666667  0.50000000  1.157407e-03 
  0.25000000  0.41666667  0.66666667  1.157407e-03 
  0.25000000  0.41666667  0.83333333  1.157407e-03 
  0.25000000  0.50000000  0.00000000  1.157407e-03 
  0.25000000  0.50000000  0.16666667  1.157407e-03 
  0.25000000  0.50000000  0.33333333  1.157407e-03 
  0.25000000  0.50000000  0.50000000  1.157407e-03 
  0.25000000  0.50000000  0.66666667  1.157407e-03 
  0.25000000  0.50000000  0.83333333  1.157407e-03 
  0.25000000  0.58333333  0.00000000  1.157407e-03 
  0.25000000  0.58333333  0.16666667  1.157407e-03 
  0.25000000  0.58333333  0.33333333  1.157407e-03 
  0.25000000  0.58333333  0.50000000  1.157407e-03 
  0.25000000  0.58333333  0.66666667  1.157407e-03 
  0.25000000  0.58333333  0.83333333  1.157407e-03 
  0.25000000  0.66666667  0.00000000  1.157407e-03 
  0.25000000  0.66666667  0.16666667  1.157407e-03 
  0.25000000  0.66666667  0.33333333  1.157407e-03 
  0.25000000  0.66666667  0.50000000  1.157407e-03 
  0.25000000  0.66666667  0.66666667  1.157407e-03 
  0.25000000  0.66666667  0.83333333  1.157407e-03 
  0.25000000  0.75000000  0.00000000  1.157407e-03 
  0.25000000  0.75000000  0.16666667  1.157407e-03 
  0.25000000  0.75000000  0.33333333  1.157407e-03 
  0.25000000  0.75000000  0.50000000  1.157407e-03 
  0.25000000  0.75000000  0.66666667  1.157407e-03 
  0.25000000  0.75000000  0.83333333  1.157407e-03 
  0.25000000  0.83333333  0.00000000  1.157407e-03 
  0.25000000  0.83333333  0.16666667  1.157407e-03 
  0.25000000  0.83333333  0.33333333  1.157407e-03 
  0.25000000  0.83333333  0.50000000  1.157407e-03 
  0.25000000  0.83333333  0.66666667  1.157407e-03 
  0.25000000  0.83333333  0.83333333  1.157407e-03 
  0.25000000  0.91666667  0.00000000  1.157407e-03 
  0.25000000  0.91666667  0.16666667  1.157407e-03 
  0.25000000  0.91666667  0.33333333  1.157407e-03 
  0.25000000  0.91666667  0.50000000  1.157407e-03 
  0.25000000  0.91666667  0.66666667  1.157407e-03 
  0.25000000  0.91666667  0.83333333  1.157407e-03 
  0.33333333  0.00000000  0.00000000  1.157407e-03 
  0.33333333  0.00000000  0.16666667  1.157407e-03 
  0.33333333  0.00000000  0.33333333  1.157407e-03 
  0.33333333  0.00000000  0.50000000  1.157407e-03 
  0.33333333  0.00000000  0.66666667  1.157407e-03 
  0.33333333  0.00000000  0.83333333  1.157407e-03 
  0.33333333  0.08333333  0.00000000  1.157407e-03 
  0.33333333  0.08333333  0.16666667  1.157407e-03 
  0.33333333  0.08333333  0.33333333  1.157407e-03 
  0.33333333  0.08333333  0.50000000  1.157407e-03 
  0.33333333  0.08333333  0.66666667  1.157407e-03 
  0.33333333  0.08333333  0.83333333  1.157407e-03 
  0.33333333  0.16666667  0.00000000  1.157407e-03 
  0.33333333  0.16666667  0.16666667  1.157407e-03 
  0.33333333  0.16666667  0.33333333  1.157407e-03 
  0.33333333  0.16666667  0.50000000  1.157407e-03 
  0.33333333  0.16666667  0.66666667  1.157407e-03 
  0.33333333  0.16666667  0.83333333  1.157407e-03 
  0.33333333  0.25000000  0.00000000  1.157407e-03 
  0.33333333  0.25000000  0.16666667  1.157407e-03 
  0.33333333  0.25000000  0.33333333  1.157407e-03 
  0.33333333  0.25000000  0.50000000  1.157407e-03 
  0.33333333  0.25000000  0.66666667  1.157407e-03 
  0.33333333  0.25000000  0.83333333  1.157407e-03 
  0.33333333  0.33333333  0.00000000  1.157407e-03 
  0.33333333  0.33333333  0.16666667  1.157407e-03 
  0.33333333  0.33333333  0.33333333  1.157407e-03 
  0.33333333  0.33333333  0.50000000  1.157407e-03 
  0.33333333  0.33333333  0.66666667  1.157407e-03 
  0.33333333  0.33333333  0.83333333  1.157407e-03 
  0.33333333  0.41666667  0.00000000  1.157407e-03 
  0.33333333  0.41666667  0.16666667  1.157407e-03 
  0.33333333  0.41666667  0.33333333  1.157407e-03 
  0.33333333  0.41666667  0.50000000  1.157407e-03 
  0.33333333  0.41666667  0.66666667  1.157407e-03 
  0.33333333  0.41666667  0.83333333  1.157407e-03 
  0.33333333  0.50000000  0.00000000  1.157407e-03 
  0.33333333  0.50000000  0.16666667  1.157407e-03 
  0.33333333  0.50000000  0.33333333  1.157407e-03 
  0.33333333  0.50000000  0.50000000  1.157407e-03 
  0.33333333  0.50000000  0.66666667  1.157407e-03 
  0.33333333  0.50000000  0.83333333  1.157407e-03 
  0.33333333  0.58333333  0.00000000  1.157407e-03 
  0.33333333  0.58333333  0.16666667  1.157407e-03 
  0.33333333  0.58333333  0.33333333  1.157407e-03 
  0.33333333  0.58333333  0.50000000  1.157407e-03 
  0.33333333  0.58333333  0.66666667  1.157407e-03 
  0.33333333  0.58333333  0.83333333  1.157407e-03 
  0.33333333  0.66666667  0.00000000  1.157407e-03 
  0.33333333  0.66666667  0.16666667  1.157407e-03 
  0.33333333  0.66666667  0.33333333  1.157407e-03 
  0.33333333  0.66666667  0.50000000  1.157407e-03 
  0.33333333  0.66666667  0.66666667  1.157407e-03 
  0.33333333  0.66666667  0.83333333  1.157407e-03 
  0.33333333  0.75000000  0.00000000  1.157407e-03 
  0.33333333  0.75000000  0.16666667  1.157407e-03 
  0.33333333  0.75000000  0.33333333  1.157407e-03 
  0.33333333  0.75000000  0.50000000  1.157407e-03 
  0.33333333  0.75000000  0.66666667  1.157407e-03 
  0.33333333  0.75000000  0.83333333  1.157407e-03 
  0.33333333  0.83333333  0.00000000  1.157407e-03 
  0.33333333  0.83333333  0.16666667  1.157407e-03 
  0.33333333  0.83333333  0.33333333  1.157407e-03 
  0.33333333  0.83333333  0.50000000  1.157407e-03 
  0.33333333  0.83333333  0.66666667  1.157407e-03 
  0.33333333  0.83333333  0.83333333  1.157407e-03 
  0.33333333  0.91666667  0.00000000  1.157407e-03 
  0.33333333  0.91666667  0.16666667  1.157407e-03 
  0.33333333  0.91666667  0.33333333  1.157407e-03 
  0.33333333  0.91666667  0.50000000  1.157407e-03 
  0.33333333  0.91666667  0.66666667  1.157407e-03 
  0.33333333  0.91666667  0.83333333  1.157407e-03 
  0.41666667  0.00000000  0.00000000  1.157407e-03 
  0.41666667  0.00000000  0.16666667  1.157407e-03 
  0.41666667  0.00000000  0.33333333  1.157407e-03 
  0.41666667  0.00000000  0.50000000  1.157407e-03 
  0.41666667  0.00000000  0.66666667  1.157407e-03 
  0.41666667  0.00000000  0.83333333  1.157407e-03 
  0.41666667  0.08333333  0.00000000  1.157407e-03 
  0.41666667  0.08333333  0.16666667  1.157407e-03 
  0.41666667  0.08333333  0.33333333  1.157407e-03 
  0.41666667  0.08333333  0.50000000  1.157407e-03 
  0.41666667  0.08333333  0.66666667  1.157407e-03 
  0.41666667  0.08333333  0.83333333  1.157407e-03 
  0.41666667  0.16666667  0.00000000  1.157407e-03 
  0.41666667  0.16666667  0.16666667  1.157407e-03 
  0.41666667  0.16666667  0.33333333  1.157407e-03 
  0.41666667  0.16666667  0.50000000  1.157407e-03 
  0.41666667  0.16666667  0.66666667  1.157407e-03 
  0.41666667  0.16666667  0.83333333  1.157407e-03 
  0.41666667  0.25000000  0.00000000  1.157407e-03 
  0.41666667  0.25000000  0.16666667  1.157407e-03 
  0.41666667  0.25000000  0.33333333  1.157407e-03 
  0.41666667  0.25000000  0.50000000  1.157407e-03 
  0.41666667  0.25000000  0.66666667  1.157407e-03 
  0.41666667  0.25000000  0.83333333  1.157407e-03 
  0.41666667  0.33333333  0.00000000  1.157407e-03 
  0.41666667  0.33333333  0.16666667  1.157407e-03 
  0.41666667  0.33333333  0.33333333  1.157407e-03 
  0.41666667  0.33333333  0.50000000  1.157407e-03 
  0.41666667  0.33333333  0.66666667  1.157407e-03 
  0.41666667  0.33333333  0.83333333  1.157407e-03 
  0.41666667  0.41666667  0.00000000  1.157407e-03 
  0.41666667  0.41666667  0.16666667  1.157407e-03 
  0.41666667  0.41666667  0.33333333  1.157407e-03 
  0.41666667  0.41666667  0.50000000  1.157407e-03 
  0.41666667  0.41666667  0.66666667  1.157407e-03 
  0.41666667  0.41666667  0.83333333  1.157407e-03 
  0.41666667  0.50000000  0.00000000  1.157407e-03 
  0.41666667  0.50000000  0.16666667  1.157407e-03 
  0.41666667  0.50000000  0.33333333  1.157407e-03 
  0.41666667  0.50000000  0.50000000  1.157407e-03 
  0.41666667  0.50000000  0.66666667  1.157407e-03 
  0.41666667  0.50000000  0.83333333  1.157407e-03 
  0.41666667  0.58333333  0.00000000  1.157407e-03 
  0.41666667  0.58333333  0.16666667  1.157407e-03 
  0.41666667  0.58333333  0.33333333  1.157407e-03 
  0.41666667  0.58333333  0.50000000  1.157407e-03 
  0.41666667  0.58333333  0.66666667  1.157407e-03 
  0.41666667  0.58333333  0.83333333  1.157407e-03 
  0.41666667  0.66666667  0.00000000  1.157407e-03 
  0.41666667  0.66666667  0.16666667  1.157407e-03 
  0.41666667  0.66666667  0.33333333  1.157407e-03 
  0.41666667  0.66666667  0.50000000  1.157407e-03 
  0.41666667  0.66666667  0.66666667  1.157407e-03 
  0.41666667  0.66666667  0.83333333  1.157407e-03 
  0.41666667  0.75000000  0.00000000  1.157407e-03 
  0.41666667  0.75000000  0.16666667  1.157407e-03 
  0.41666667  0.75000000  0.33333333  1.157407e-03 
  0.41666667  0.75000000  0.50000000  1.157407e-03 
  0.41666667  0.75000000  0.66666667  1.157407e-03 
  0.41666667  0.75000000  0.83333333  1.157407e-03 
  0.41666667  0.83333333  0.00000000  1.157407e-03 
  0.41666667  0.83333333  0.16666667  1.157407e-03 
  0.41666667  0.83333333  0.33333333  1.157407e-03 
  0.41666667  0.83333333  0.50000000  1.157407e-03 
  0.41666667  0.83333333  0.66666667  1.157407e-03 
  0.41666667  0.83333333  0.83333333  1.157407e-03 
  0.41666667  0.91666667  0.00000000  1.157407e-03 
  0.41666667  0.91666667  0.16666667  1.157407e-03 
  0.41666667  0.91666667  0.33333333  1.157407e-03 
  0.41666667  0.91666667  0.50000000  1.157407e-03 
  0.41666667  0.91666667  0.66666667  1.157407e-03 
  0.41666667  0.91666667  0.83333333  1.157407e-03 
  0.50000000  0.00000000  0.00000000  1.157407e-03 
  0.50000000  0.00000000  0.16666667  1.157407e-03 
  0.50000000  0.00000000  0.33333333  1.157407e-03 
  0.50000000  0.00000000  0.50000000  1.157407e-03 
  0.50000000  0.00000000  0.66666667  1.157407e-03 
  0.50000000  0.00000000  0.83333333  1.157407e-03 
  0.50000000  0.08333333  0.00000000  1.157407e-03 
  0.50000000  0.08333333  0.16666667  1.157407e-03 
  0.50000000  0.08333333  0.33333333  1.157407e-03 
  0.50000000  0.08333333  0.50000000  1.157407e-03 
  0.50000000  0.08333333  0.66666667  1.157407e-03 
  0.50000000  0.08333333  0.83333333  1.157407e-03 
  0.50000000  0.16666667  0.00000000  1.157407e-03 
  0.50000000  0.16666667  0.16666667  1.157407e-03 
  0.50000000  0.16666667  0.33333333  1.157407e-03 
  0.50000000  0.16666667  0.50000000  1.157407e-03 
  0.50000000  0.16666667  0.66666667  1.157407e-03 
  0.50000000  0.16666667  0.83333333  1.157407e-03 
  0.50000000  0.25000000  0.00000000  1.157407e-03 
  0.50000000  0.25000000  0.16666667  1.157407e-03 
  0.50000000  0.25000000  0.33333333  1.157407e-03 
  0.50000000  0.25000000  0.50000000  1.157407e-03 
  0.50000000  0.25000000  0.66666667  1.157407e-03 
  0.50000000  0.25000000  0.83333333  1.157407e-03 
  0.50000000  0.33333333  0.00000000  1.157407e-03 
  0.50000000  0.33333333  0.16666667  1.157407e-03 
  0.50000000  0.33333333  0.33333333  1.157407e-03 
  0.50000000  0.33333333  0.50000000  1.157407e-03 
  0.50000000  0.33333333  0.66666667  1.157407e-03 
  0.50000000  0.33333333  0.83333333  1.157407e-03 
  0.50000000  0.41666667  0.00000000  1.157407e-03 
  0.50000000  0.41666667  0.16666667  1.157407e-03 
  0.50000000  0.41666667  0.33333333  1.157407e-03 
  0.50000000  0.41666667  0.50000000  1.157407e-03 
  0.50000000  0.41666667  0.66666667  1.157407e-03 
  0.50000000  0.41666667  0.83333333  1.157407e-03 
  0.50000000  0.50000000  0.00000000  1.157407e-03 
  0.50000000  0.50000000  0.16666667  1.157407e-03 
  0.50000000  0.50000000  0.33333333  1.157407e-03 
  0.50000000  0.50000000  0.50000000  1.157407e-03 
  0.50000000  0.50000000  0.66666667  1.157407e-03 
  0.50000000  0.50000000  0.83333333  1.157407e-03 
  0.50000000  0.58333333  0.00000000  1.157407e-03 
  0.50000000  0.58333333  0.16666667  1.157407e-03 
  0.50000000  0.58333333  0.33333333  1.157407e-03 
  0.50000000  0.58333333  0.50000000  1.157407e-03 
  0.50000000  0.58333333  0.66666667  1.157407e-03 
  0.50000000  0.58333333  0.83333333  1.157407e-03 
  0.50000000  0.66666667  0.00000000  1.157407e-03 
  0.50000000  0.66666667  0.16666667  1.157407e-03 
  0.50000000  0.66666667  0.33333333  1.157407e-03 
  0.50000000  0.66666667  0.50000000  1.157407e-03 
  0.50000000  0.66666667  0.66666667  1.157407e-03 
  0.50000000  0.66666667  0.83333333  1.157407e-03 
  0.50000000  0.75000000  0.00000000  1.157407e-03 
  0.50000000  0.75000000  0.16666667  1.157407e-03 
  0.50000000  0.75000000  0.33333333  1.157407e-03 
  0.50000000  0.75000000  0.50000000  1.157407e-03 
  0.50000000  0.75000000  0.66666667  1.157407e-03 
  0.50000000  0.75000000  0.83333333  1.157407e-03 
  0.50000000  0.83333333  0.00000000  1.157407e-03 
  0.50000000  0.83333333  0.16666667  1.157407e-03 
  0.50000000  0.83333333  0.33333333  1.157407e-03 
  0.50000000  0.83333333  0.50000000  1.157407e-03 
  0.50000000  0.83333333  0.66666667  1.157407e-03 
  0.50000000  0.83333333  0.83333333  1.157407e-03 
  0.50000000  0.91666667  0.00000000  1.157407e-03 
  0.50000000  0.91666667  0.16666667  1.157407e-03 
  0.50000000  0.91666667  0.33333333  1.157407e-03 
  0.50000000  0.91666667  0.50000000  1.157407e-03 
  0.50000000  0.91666667  0.66666667  1.157407e-03 
  0.50000000  0.91666667  0.83333333  1.157407e-03 
  0.58333333  0.00000000  0.00000000  1.157407e-03 
  0.58333333  0.00000000  0.16666667  1.157407e-03 
  0.58333333  0.00000000  0.33333333  1.157407e-03 
  0.58333333  0.00000000  0.50000000  1.157407e-03 
  0.58333333  0.00000000  0.66666667  1.157407e-03 
  0.58333333  0.00000000  0.83333333  1.157407e-03 
  0.58333333  0.08333333  0.00000000  1.157407e-03 
  0.58333333  0.08333333  0.16666667  1.157407e-03 
  0.58333333  0.08333333  0.33333333  1.157407e-03 
  0.58333333  0.08333333  0.50000000  1.157407e-03 
  0.58333333  0.08333333  0.66666667  1.157407e-03 
  0.58333333  0.08333333  0.83333333  1.157407e-03 
  0.58333333  0.16666667  0.00000000  1.157407e-03 
  0.58333333  0.16666667  0.16666667  1.157407e-03 
  0.58333333  0.16666667  0.33333333  1.157407e-03 
  0.58333333  0.16666667  0.50000000  1.157407e-03 
  0.58333333  0.16666667  0.66666667  1.157407e-03 
  0.58333333  0.16666667  0.83333333  1.157407e-03 
  0.58333333  0.25000000  0.00000000  1.157407e-03 
  0.58333333  0.25000000  0.16666667  1.157407e-03 
  0.58333333  0.25000000  0.33333333  1.157407e-03 
  0.58333333  0.25000000  0.50000000  1.157407e-03 
  0.58333333  0.25000000  0.66666667  1.157407e-03 
  0.58333333  0.25000000  0.83333333  1.157407e-03 
  0.58333333  0.33333333  0.00000000  1.157407e-03 
  0.58333333  0.33333333  0.16666667  1.157407e-03 
  0.58333333  0.33333333  0.33333333  1.157407e-03 
  0.58333333  0.33333333  0.50000000  1.157407e-03 
  0.58333333  0.33333333  0.66666667  1.157407e-03 
  0.58333333  0.33333333  0.83333333  1.157407e-03 
  0.58333333  0.41666667  0.00000000  1.157407e-03 
  0.58333333  0.41666667  0.16666667  1.157407e-03 
  0.58333333  0.41666667  0.33333333  1.157407e-03 
  0.58333333  0.41666667  0.50000000  1.157407e-03 
  0.58333333  0.41666667  0.66666667  1.157407e-03 
  0.58333333  0.41666667  0.83333333  1.157407e-03 
  0.58333333  0.50000000  0.00000000  1.157407e-03 
  0.58333333  0.50000000  0.16666667  1.157407e-03 
  0.58333333  0.50000000  0.33333333  1.157407e-03 
  0.58333333  0.50000000  0.50000000  1.157407e-03 
  0.58333333  0.50000000  0.66666667  1.157407e-03 
  0.58333333  0.50000000  0.83333333  1.157407e-03 
  0.58333333  0.58333333  0.00000000  1.157407e-03 
  0.58333333  0.58333333  0.16666667  1.157407e-03 
  0.58333333  0.58333333  0.33333333  1.157407e-03 
  0.58333333  0.58333333  0.50000000  1.157407e-03 
  0.58333333  0.58333333  0.66666667  1.157407e-03 
  0.58333333  0.58333333  0.83333333  1.157407e-03 
  0.58333333  0.66666667  0.00000000  1.157407e-03 
  0.58333333  0.66666667  0.16666667  1.157407e-03 
  0.58333333  0.66666667  0.33333333  1.157407e-03 
  0.58333333  0.66666667  0.50000000  1.157407e-03 
  0.58333333  0.66666667  0.66666667  1.157407e-03 
  0.58333333  0.66666667  0.83333333  1.157407e-03 
  0.58333333  0.75000000  0.00000000  1.157407e-03 