num_bands         =   40
num_wann          =   16

#exclude_bands : 1-8

#restart=wannierise

dis_win_min       = -15.0d0
dis_win_max       =  60.0d0
dis_froz_min      = -15.0d0
dis_froz_max      =  17.5d0

#dis_froz_max = 19.1473

#hr_plot = .true.
#wannier_plot = .true.

num_iter          = 20000
num_print_cycles  = 100

dis_num_iter = 20000
dis_mix_ratio = 0.9

Begin Atoms_Frac
B       0.333333333   0.666666667   0.250000000
B       0.666666667   0.333333333   0.750000000
N       0.333333333   0.666666667   0.750000000
N       0.666666667   0.333333333   0.250000000
End Atoms_Frac

Begin Projections
#B:sp3
#N:sp3
B:s;p
N:s;p
#random
End Projections

#restart = plot

bands_plot .true.
begin kpoint_path
G 0.00000 0.00000 0.00000  M 0.50000 0.00000 0.00000
M 0.50000 0.00000 0.00000  K 0.33333 0.33333 0.00000
K 0.33333 0.33333 0.00000  G 0.00000 0.00000 0.00000
G 0.00000 0.00000 0.00000  A 0.00000 0.00000 0.50000
A 0.00000 0.00000 0.50000  L 0.50000 0.00000 0.50000
L 0.50000 0.00000 0.50000  H 0.33333 0.33333 0.50000
H 0.33333 0.33333 0.50000  A 0.00000 0.00000 0.50000
A 0.00000 0.00000 0.50000  L 0.50000 0.00000 0.50000
L 0.50000 0.00000 0.50000  M 0.50000 0.00000 0.00000
M 0.50000 0.00000 0.00000  K 0.33333 0.33333 0.00000
K 0.33333 0.33333 0.00000  H 0.33333 0.33333 0.50000
end kpoint_path

bands_num_points 200
bands_plot_format gnuplot

Begin Unit_Cell_Cart
Bohr
 4.731873875000000e0 0.000000000000000e0 0.000000000000000e0
-2.365936937500000e0 4.097922983254201e0 0.000000000000000e0
 0.000000000000000e0 0.000000000000000e0 1.258784275404157e1
End Unit_Cell_Cart

mp_grid      = 12 12 6

begin kpoints
  0.0000000000000000  0.0000000000000000  0.0000000000000000 
  0.0000000000000000  0.0000000000000000  0.1666666666666667 
  0.0000000000000000  0.0000000000000000  0.3333333333333333 
  0.0000000000000000  0.0000000000000000  0.5000000000000000 
  0.0000000000000000  0.0000000000000000  0.6666666666666666 
  0.0000000000000000  0.0000000000000000  0.8333333333333334 
  0.0000000000000000  0.0833333333333333  0.0000000000000000 
  0.0000000000000000  0.0833333333333333  0.1666666666666667 
  0.0000000000000000  0.0833333333333333  0.3333333333333333 
  0.0000000000000000  0.0833333333333333  0.5000000000000000 
  0.0000000000000000  0.0833333333333333  0.6666666666666666 
  0.0000000000000000  0.0833333333333333  0.8333333333333334 
  0.0000000000000000  0.1666666666666667  0.0000000000000000 
  0.0000000000000000  0.1666666666666667  0.1666666666666667 
  0.0000000000000000  0.1666666666666667  0.3333333333333333 
  0.0000000000000000  0.1666666666666667  0.5000000000000000 
  0.0000000000000000  0.1666666666666667  0.6666666666666666 
  0.0000000000000000  0.1666666666666667  0.8333333333333334 
  0.0000000000000000  0.2500000000000000  0.0000000000000000 
  0.0000000000000000  0.2500000000000000  0.1666666666666667 
  0.0000000000000000  0.2500000000000000  0.3333333333333333 
  0.0000000000000000  0.2500000000000000  0.5000000000000000 
  0.0000000000000000  0.2500000000000000  0.6666666666666666 
  0.0000000000000000  0.2500000000000000  0.8333333333333334 
  0.0000000000000000  0.3333333333333333  0.0000000000000000 
  0.0000000000000000  0.3333333333333333  0.1666666666666667 
  0.0000000000000000  0.3333333333333333  0.3333333333333333 
  0.0000000000000000  0.3333333333333333  0.5000000000000000 
  0.0000000000000000  0.3333333333333333  0.6666666666666666 
  0.0000000000000000  0.3333333333333333  0.8333333333333334 
  0.0000000000000000  0.4166666666666667  0.0000000000000000 
  0.0000000000000000  0.4166666666666667  0.1666666666666667 
  0.0000000000000000  0.4166666666666667  0.3333333333333333 
  0.0000000000000000  0.4166666666666667  0.5000000000000000 
  0.0000000000000000  0.4166666666666667  0.6666666666666666 
  0.0000000000000000  0.4166666666666667  0.8333333333333334 
  0.0000000000000000  0.5000000000000000  0.0000000000000000 
  0.0000000000000000  0.5000000000000000  0.1666666666666667 
  0.0000000000000000  0.5000000000000000  0.3333333333333333 
  0.0000000000000000  0.5000000000000000  0.5000000000000000 
  0.0000000000000000  0.5000000000000000  0.6666666666666666 
  0.0000000000000000  0.5000000000000000  0.8333333333333334 
  0.0000000000000000  0.5833333333333334  0.0000000000000000 
  0.0000000000000000  0.5833333333333334  0.1666666666666667 
  0.0000000000000000  0.5833333333333334  0.3333333333333333 
  0.0000000000000000  0.5833333333333334  0.5000000000000000 
  0.0000000000000000  0.5833333333333334  0.6666666666666666 
  0.0000000000000000  0.5833333333333334  0.8333333333333334 
  0.0000000000000000  0.6666666666666666  0.0000000000000000 
  0.0000000000000000  0.6666666666666666  0.1666666666666667 
  0.0000000000000000  0.6666666666666666  0.3333333333333333 
  0.0000000000000000  0.6666666666666666  0.5000000000000000 
  0.0000000000000000  0.6666666666666666  0.6666666666666666 
  0.0000000000000000  0.6666666666666666  0.8333333333333334 
  0.0000000000000000  0.7500000000000000  0.0000000000000000 
  0.0000000000000000  0.7500000000000000  0.1666666666666667 
  0.0000000000000000  0.7500000000000000  0.3333333333333333 
  0.0000000000000000  0.7500000000000000  0.5000000000000000 
  0.0000000000000000  0.7500000000000000  0.6666666666666666 
  0.0000000000000000  0.7500000000000000  0.8333333333333334 
  0.0000000000000000  0.8333333333333334  0.0000000000000000 
  0.0000000000000000  0.8333333333333334  0.1666666666666667 
  0.0000000000000000  0.8333333333333334  0.3333333333333333 
  0.0000000000000000  0.8333333333333334  0.5000000000000000 
  0.0000000000000000  0.8333333333333334  0.6666666666666666 
  0.0000000000000000  0.8333333333333334  0.8333333333333334 
  0.0000000000000000  0.9166666666666666  0.0000000000000000 
  0.0000000000000000  0.9166666666666666  0.1666666666666667 
  0.0000000000000000  0.9166666666666666  0.3333333333333333 
  0.0000000000000000  0.9166666666666666  0.5000000000000000 
  0.0000000000000000  0.9166666666666666  0.6666666666666666 
  0.0000000000000000  0.9166666666666666  0.8333333333333334 
  0.0833333333333333  0.0000000000000000  0.0000000000000000 
  0.0833333333333333  0.0000000000000000  0.1666666666666667 
  0.0833333333333333  0.0000000000000000  0.3333333333333333 
  0.0833333333333333  0.0000000000000000  0.5000000000000000 
  0.0833333333333333  0.0000000000000000  0.6666666666666666 
  0.0833333333333333  0.0000000000000000  0.8333333333333334 
  0.0833333333333333  0.0833333333333333  0.0000000000000000 
  0.0833333333333333  0.0833333333333333  0.1666666666666667 
  0.0833333333333333  0.0833333333333333  0.3333333333333333 
  0.0833333333333333  0.0833333333333333  0.5000000000000000 
  0.0833333333333333  0.0833333333333333  0.6666666666666666 
  0.0833333333333333  0.0833333333333333  0.8333333333333334 
  0.0833333333333333  0.1666666666666667  0.0000000000000000 
  0.0833333333333333  0.1666666666666667  0.1666666666666667 
  0.0833333333333333  0.1666666666666667  0.3333333333333333 
  0.0833333333333333  0.1666666666666667  0.5000000000000000 
  0.0833333333333333  0.1666666666666667  0.6666666666666666 
  0.0833333333333333  0.1666666666666667  0.8333333333333334 
  0.0833333333333333  0.2500000000000000  0.0000000000000000 
  0.0833333333333333  0.2500000000000000  0.1666666666666667 
  0.0833333333333333  0.2500000000000000  0.3333333333333333 
  0.0833333333333333  0.2500000000000000  0.5000000000000000 
  0.0833333333333333  0.2500000000000000  0.6666666666666666 
  0.0833333333333333  0.2500000000000000  0.8333333333333334 
  0.0833333333333333  0.3333333333333333  0.0000000000000000 
  0.0833333333333333  0.3333333333333333  0.1666666666666667 
  0.0833333333333333  0.3333333333333333  0.3333333333333333 
  0.0833333333333333  0.3333333333333333  0.5000000000000000 
  0.0833333333333333  0.3333333333333333  0.6666666666666666 
  0.0833333333333333  0.3333333333333333  0.8333333333333334 
  0.0833333333333333  0.4166666666666667  0.0000000000000000 
  0.0833333333333333  0.4166666666666667  0.1666666666666667 
  0.0833333333333333  0.4166666666666667  0.3333333333333333 
  0.0833333333333333  0.4166666666666667  0.5000000000000000 
  0.0833333333333333  0.4166666666666667  0.6666666666666666 
  0.0833333333333333  0.4166666666666667  0.8333333333333334 
  0.0833333333333333  0.5000000000000000  0.0000000000000000 
  0.0833333333333333  0.5000000000000000  0.1666666666666667 
  0.0833333333333333  0.5000000000000000  0.3333333333333333 
  0.0833333333333333  0.5000000000000000  0.5000000000000000 
  0.0833333333333333  0.5000000000000000  0.6666666666666666 
  0.0833333333333333  0.5000000000000000  0.8333333333333334 
  0.0833333333333333  0.5833333333333334  0.0000000000000000 
  0.0833333333333333  0.5833333333333334  0.1666666666666667 
  0.0833333333333333  0.5833333333333334  0.3333333333333333 
  0.0833333333333333  0.5833333333333334  0.5000000000000000 
  0.0833333333333333  0.5833333333333334  0.6666666666666666 
  0.0833333333333333  0.5833333333333334  0.8333333333333334 
  0.0833333333333333  0.6666666666666666  0.0000000000000000 
  0.0833333333333333  0.6666666666666666  0.1666666666666667 
  0.0833333333333333  0.6666666666666666  0.3333333333333333 
  0.0833333333333333  0.6666666666666666  0.5000000000000000 
  0.0833333333333333  0.6666666666666666  0.6666666666666666 
  0.0833333333333333  0.6666666666666666  0.8333333333333334 
  0.0833333333333333  0.7500000000000000  0.0000000000000000 
  0.0833333333333333  0.7500000000000000  0.1666666666666667 
  0.0833333333333333  0.7500000000000000  0.3333333333333333 
  0.0833333333333333  0.7500000000000000  0.5000000000000000 
  0.0833333333333333  0.7500000000000000  0.6666666666666666 
  0.0833333333333333  0.7500000000000000  0.8333333333333334 
  0.0833333333333333  0.8333333333333334  0.0000000000000000 
  0.0833333333333333  0.8333333333333334  0.1666666666666667 
  0.0833333333333333  0.8333333333333334  0.3333333333333333 
  0.0833333333333333  0.8333333333333334  0.5000000000000000 
  0.0833333333333333  0.8333333333333334  0.6666666666666666 
  0.0833333333333333  0.8333333333333334  0.8333333333333334 
  0.0833333333333333  0.9166666666666666  0.0000000000000000 
  0.0833333333333333  0.9166666666666666  0.1666666666666667 
  0.0833333333333333  0.9166666666666666  0.3333333333333333 
  0.0833333333333333  0.9166666666666666  0.5000000000000000 
  0.0833333333333333  0.9166666666666666  0.6666666666666666 
  0.0833333333333333  0.9166666666666666  0.8333333333333334 
  0.1666666666666667  0.0000000000000000  0.0000000000000000 
  0.1666666666666667  0.0000000000000000  0.1666666666666667 
  0.1666666666666667  0.0000000000000000  0.3333333333333333 
  0.1666666666666667  0.0000000000000000  0.5000000000000000 
  0.1666666666666667  0.0000000000000000  0.6666666666666666 
  0.1666666666666667  0.0000000000000000  0.8333333333333334 
  0.1666666666666667  0.0833333333333333  0.0000000000000000 
  0.1666666666666667  0.0833333333333333  0.1666666666666667 
  0.1666666666666667  0.0833333333333333  0.3333333333333333 
  0.1666666666666667  0.0833333333333333  0.5000000000000000 
  0.1666666666666667  0.0833333333333333  0.6666666666666666 
  0.1666666666666667  0.0833333333333333  0.8333333333333334 
  0.1666666666666667  0.1666666666666667  0.0000000000000000 
  0.1666666666666667  0.1666666666666667  0.1666666666666667 
  0.1666666666666667  0.1666666666666667  0.3333333333333333 
  0.1666666666666667  0.1666666666666667  0.5000000000000000 
  0.1666666666666667  0.1666666666666667  0.6666666666666666 
  0.1666666666666667  0.1666666666666667  0.8333333333333334 
  0.1666666666666667  0.2500000000000000  0.0000000000000000 
  0.1666666666666667  0.2500000000000000  0.1666666666666667 
  0.1666666666666667  0.2500000000000000  0.3333333333333333 
  0.1666666666666667  0.2500000000000000  0.5000000000000000 
  0.1666666666666667  0.2500000000000000  0.6666666666666666 
  0.1666666666666667  0.2500000000000000  0.8333333333333334 
  0.1666666666666667  0.3333333333333333  0.0000000000000000 
  0.1666666666666667  0.3333333333333333  0.1666666666666667 
  0.1666666666666667  0.3333333333333333  0.3333333333333333 
  0.1666666666666667  0.3333333333333333  0.5000000000000000 
  0.1666666666666667  0.3333333333333333  0.6666666666666666 
  0.1666666666666667  0.3333333333333333  0.8333333333333334 
  0.1666666666666667  0.4166666666666667  0.0000000000000000 
  0.1666666666666667  0.4166666666666667  0.1666666666666667 
  0.1666666666666667  0.4166666666666667  0.3333333333333333 
  0.1666666666666667  0.4166666666666667  0.5000000000000000 
  0.1666666666666667  0.4166666666666667  0.6666666666666666 
  0.1666666666666667  0.4166666666666667  0.8333333333333334 
  0.1666666666666667  0.5000000000000000  0.0000000000000000 
  0.1666666666666667  0.5000000000000000  0.1666666666666667 
  0.1666666666666667  0.5000000000000000  0.3333333333333333 
  0.1666666666666667  0.5000000000000000  0.5000000000000000 
  0.1666666666666667  0.5000000000000000  0.6666666666666666 
  0.1666666666666667  0.5000000000000000  0.8333333333333334 
  0.1666666666666667  0.5833333333333334  0.0000000000000000 
  0.1666666666666667  0.5833333333333334  0.1666666666666667 
  0.1666666666666667  0.5833333333333334  0.3333333333333333 
  0.1666666666666667  0.5833333333333334  0.5000000000000000 
  0.1666666666666667  0.5833333333333334  0.6666666666666666 
  0.1666666666666667  0.5833333333333334  0.8333333333333334 
  0.1666666666666667  0.6666666666666666  0.0000000000000000 
  0.1666666666666667  0.6666666666666666  0.1666666666666667 
  0.1666666666666667  0.6666666666666666  0.3333333333333333 
  0.1666666666666667  0.6666666666666666  0.5000000000000000 
  0.1666666666666667  0.6666666666666666  0.6666666666666666 
  0.1666666666666667  0.6666666666666666  0.8333333333333334 
  0.1666666666666667  0.7500000000000000  0.0000000000000000 
  0.1666666666666667  0.7500000000000000  0.1666666666666667 
  0.1666666666666667  0.7500000000000000  0.3333333333333333 
  0.1666666666666667  0.7500000000000000  0.5000000000000000 
  0.1666666666666667  0.7500000000000000  0.6666666666666666 
  0.1666666666666667  0.7500000000000000  0.8333333333333334 
  0.1666666666666667  0.8333333333333334  0.0000000000000000 
  0.1666666666666667  0.8333333333333334  0.1666666666666667 
  0.1666666666666667  0.8333333333333334  0.3333333333333333 
  0.1666666666666667  0.8333333333333334  0.5000000000000000 
  0.1666666666666667  0.8333333333333334  0.6666666666666666 
  0.1666666666666667  0.8333333333333334  0.8333333333333334 
  0.1666666666666667  0.9166666666666666  0.0000000000000000 
  0.1666666666666667  0.9166666666666666  0.1666666666666667 
  0.1666666666666667  0.9166666666666666  0.3333333333333333 
  0.1666666666666667  0.9166666666666666  0.5000000000000000 
  0.1666666666666667  0.9166666666666666  0.6666666666666666 
  0.1666666666666667  0.9166666666666666  0.8333333333333334 
  0.2500000000000000  0.0000000000000000  0.0000000000000000 
  0.2500000000000000  0.0000000000000000  0.1666666666666667 
  0.2500000000000000  0.0000000000000000  0.3333333333333333 
  0.2500000000000000  0.0000000000000000  0.5000000000000000 
  0.2500000000000000  0.0000000000000000  0.6666666666666666 
  0.2500000000000000  0.0000000000000000  0.8333333333333334 
  0.2500000000000000  0.0833333333333333  0.0000000000000000 
  0.2500000000000000  0.0833333333333333  0.1666666666666667 
  0.2500000000000000  0.0833333333333333  0.3333333333333333 
  0.2500000000000000  0.0833333333333333  0.5000000000000000 
  0.2500000000000000  0.0833333333333333  0.6666666666666666 
  0.2500000000000000  0.0833333333333333  0.8333333333333334 
  0.2500000000000000  0.1666666666666667  0.0000000000000000 
  0.2500000000000000  0.1666666666666667  0.1666666666666667 
  0.2500000000000000  0.1666666666666667  0.3333333333333333 
  0.2500000000000000  0.1666666666666667  0.5000000000000000 
  0.2500000000000000  0.1666666666666667  0.6666666666666666 
  0.2500000000000000  0.1666666666666667  0.8333333333333334 
  0.2500000000000000  0.2500000000000000  0.0000000000000000 
  0.2500000000000000  0.2500000000000000  0.1666666666666667 
  0.2500000000000000  0.2500000000000000  0.3333333333333333 
  0.2500000000000000  0.2500000000000000  0.5000000000000000 
  0.2500000000000000  0.2500000000000000  0.6666666666666666 
  0.2500000000000000  0.2500000000000000  0.8333333333333334 
  0.2500000000000000  0.3333333333333333  0.0000000000000000 
  0.2500000000000000  0.3333333333333333  0.1666666666666667 
  0.2500000000000000  0.3333333333333333  0.3333333333333333 
  0.2500000000000000  0.3333333333333333  0.5000000000000000 
  0.2500000000000000  0.3333333333333333  0.6666666666666666 
  0.2500000000000000  0.3333333333333333  0.8333333333333334 
  0.2500000000000000  0.4166666666666667  0.0000000000000000 
  0.2500000000000000  0.4166666666666667  0.1666666666666667 
  0.2500000000000000  0.4166666666666667  0.3333333333333333 
  0.2500000000000000  0.4166666666666667  0.5000000000000000 
  0.2500000000000000  0.4166666666666667  0.6666666666666666 
  0.2500000000000000  0.4166666666666667  0.8333333333333334 
  0.2500000000000000  0.5000000000000000  0.0000000000000000 
  0.2500000000000000  0.5000000000000000  0.1666666666666667 
  0.2500000000000000  0.5000000000000000  0.3333333333333333 
  0.2500000000000000  0.5000000000000000  0.5000000000000000 
  0.2500000000000000  0.5000000000000000  0.6666666666666666 
  0.2500000000000000  0.5000000000000000  0.8333333333333334 
  0.2500000000000000  0.5833333333333334  0.0000000000000000 
  0.2500000000000000  0.5833333333333334  0.1666666666666667 
  0.2500000000000000  0.5833333333333334  0.3333333333333333 
  0.2500000000000000  0.5833333333333334  0.5000000000000000 
  0.2500000000000000  0.5833333333333334  0.6666666666666666 
  0.2500000000000000  0.5833333333333334  0.8333333333333334 
  0.2500000000000000  0.6666666666666666  0.0000000000000000 
  0.2500000000000000  0.6666666666666666  0.1666666666666667 
  0.2500000000000000  0.6666666666666666  0.3333333333333333 
  0.2500000000000000  0.6666666666666666  0.5000000000000000 
  0.2500000000000000  0.6666666666666666  0.6666666666666666 
  0.2500000000000000  0.6666666666666666  0.8333333333333334 
  0.2500000000000000  0.7500000000000000  0.0000000000000000 
  0.2500000000000000  0.7500000000000000  0.1666666666666667 
  0.2500000000000000  0.7500000000000000  0.3333333333333333 
  0.2500000000000000  0.7500000000000000  0.5000000000000000 
  0.2500000000000000  0.7500000000000000  0.6666666666666666 
  0.2500000000000000  0.7500000000000000  0.8333333333333334 
  0.2500000000000000  0.8333333333333334  0.0000000000000000 
  0.2500000000000000  0.8333333333333334  0.1666666666666667 
  0.2500000000000000  0.8333333333333334  0.3333333333333333 
  0.2500000000000000  0.8333333333333334  0.5000000000000000 
  0.2500000000000000  0.8333333333333334  0.6666666666666666 
  0.2500000000000000  0.8333333333333334  0.8333333333333334 
  0.2500000000000000  0.9166666666666666  0.0000000000000000 
  0.2500000000000000  0.9166666666666666  0.1666666666666667 
  0.2500000000000000  0.9166666666666666  0.3333333333333333 
  0.2500000000000000  0.9166666666666666  0.5000000000000000 
  0.2500000000000000  0.9166666666666666  0.6666666666666666 
  0.2500000000000000  0.9166666666666666  0.8333333333333334 
  0.3333333333333333  0.0000000000000000  0.0000000000000000 
  0.3333333333333333  0.0000000000000000  0.1666666666666667 
  0.3333333333333333  0.0000000000000000  0.3333333333333333 
  0.3333333333333333  0.0000000000000000  0.5000000000000000 
  0.3333333333333333  0.0000000000000000  0.6666666666666666 
  0.3333333333333333  0.0000000000000000  0.8333333333333334 
  0.3333333333333333  0.0833333333333333  0.0000000000000000 
  0.3333333333333333  0.0833333333333333  0.1666666666666667 
  0.3333333333333333  0.0833333333333333  0.3333333333333333 
  0.3333333333333333  0.0833333333333333  0.5000000000000000 
  0.3333333333333333  0.0833333333333333  0.6666666666666666 
  0.3333333333333333  0.0833333333333333  0.8333333333333334 
  0.3333333333333333  0.1666666666666667  0.0000000000000000 
  0.3333333333333333  0.1666666666666667  0.1666666666666667 
  0.3333333333333333  0.1666666666666667  0.3333333333333333 
  0.3333333333333333  0.1666666666666667  0.5000000000000000 
  0.3333333333333333  0.1666666666666667  0.6666666666666666 
  0.3333333333333333  0.1666666666666667  0.8333333333333334 
  0.3333333333333333  0.2500000000000000  0.0000000000000000 
  0.3333333333333333  0.2500000000000000  0.1666666666666667 
  0.3333333333333333  0.2500000000000000  0.3333333333333333 
  0.3333333333333333  0.2500000000000000  0.5000000000000000 
  0.3333333333333333  0.2500000000000000  0.6666666666666666 
  0.3333333333333333  0.2500000000000000  0.8333333333333334 
  0.3333333333333333  0.3333333333333333  0.0000000000000000 
  0.3333333333333333  0.3333333333333333  0.1666666666666667 
  0.3333333333333333  0.3333333333333333  0.3333333333333333 
  0.3333333333333333  0.3333333333333333  0.5000000000000000 
  0.3333333333333333  0.3333333333333333  0.6666666666666666 
  0.3333333333333333  0.3333333333333333  0.8333333333333334 
  0.3333333333333333  0.4166666666666667  0.0000000000000000 
  0.3333333333333333  0.4166666666666667  0.1666666666666667 
  0.3333333333333333  0.4166666666666667  0.3333333333333333 
  0.3333333333333333  0.4166666666666667  0.5000000000000000 
  0.3333333333333333  0.4166666666666667  0.6666666666666666 
  0.3333333333333333  0.4166666666666667  0.8333333333333334 
  0.3333333333333333  0.5000000000000000  0.0000000000000000 
  0.3333333333333333  0.5000000000000000  0.1666666666666667 
  0.3333333333333333  0.5000000000000000  0.3333333333333333 
  0.3333333333333333  0.5000000000000000  0.5000000000000000 
  0.3333333333333333  0.5000000000000000  0.6666666666666666 
  0.3333333333333333  0.5000000000000000  0.8333333333333334 
  0.3333333333333333  0.5833333333333334  0.0000000000000000 
  0.3333333333333333  0.5833333333333334  0.1666666666666667 
  0.3333333333333333  0.5833333333333334  0.3333333333333333 
  0.3333333333333333  0.5833333333333334  0.5000000000000000 
  0.3333333333333333  0.5833333333333334  0.6666666666666666 
  0.3333333333333333  0.5833333333333334  0.8333333333333334 
  0.3333333333333333  0.6666666666666666  0.0000000000000000 
  0.3333333333333333  0.6666666666666666  0.1666666666666667 
  0.3333333333333333  0.6666666666666666  0.3333333333333333 
  0.3333333333333333  0.6666666666666666  0.5000000000000000 
  0.3333333333333333  0.6666666666666666  0.6666666666666666 
  0.3333333333333333  0.6666666666666666  0.8333333333333334 
  0.3333333333333333  0.7500000000000000  0.0000000000000000 
  0.3333333333333333  0.7500000000000000  0.1666666666666667 
  0.3333333333333333  0.7500000000000000  0.3333333333333333 
  0.3333333333333333  0.7500000000000000  0.5000000000000000 
  0.3333333333333333  0.7500000000000000  0.6666666666666666 
  0.3333333333333333  0.7500000000000000  0.8333333333333334 
  0.3333333333333333  0.8333333333333334  0.0000000000000000 
  0.3333333333333333  0.8333333333333334  0.1666666666666667 
  0.3333333333333333  0.8333333333333334  0.3333333333333333 
  0.3333333333333333  0.8333333333333334  0.5000000000000000 
  0.3333333333333333  0.8333333333333334  0.6666666666666666 
  0.3333333333333333  0.8333333333333334  0.8333333333333334 
  0.3333333333333333  0.9166666666666666  0.0000000000000000 
  0.3333333333333333  0.9166666666666666  0.1666666666666667 
  0.3333333333333333  0.9166666666666666  0.3333333333333333 
  0.3333333333333333  0.9166666666666666  0.5000000000000000 
  0.3333333333333333  0.9166666666666666  0.6666666666666666 
  0.3333333333333333  0.9166666666666666  0.8333333333333334 
  0.4166666666666667  0.0000000000000000  0.0000000000000000 
  0.4166666666666667  0.0000000000000000  0.1666666666666667 
  0.4166666666666667  0.0000000000000000  0.3333333333333333 
  0.4166666666666667  0.0000000000000000  0.5000000000000000 
  0.4166666666666667  0.0000000000000000  0.6666666666666666 
  0.4166666666666667  0.0000000000000000  0.8333333333333334 
  0.4166666666666667  0.0833333333333333  0.0000000000000000 
  0.4166666666666667  0.0833333333333333  0.1666666666666667 
  0.4166666666666667  0.0833333333333333  0.3333333333333333 
  0.4166666666666667  0.0833333333333333  0.5000000000000000 
  0.4166666666666667  0.0833333333333333  0.6666666666666666 
  0.4166666666666667  0.0833333333333333  0.8333333333333334 
  0.4166666666666667  0.1666666666666667  0.0000000000000000 
  0.4166666666666667  0.1666666666666667  0.1666666666666667 
  0.4166666666666667  0.1666666666666667  0.3333333333333333 
  0.4166666666666667  0.1666666666666667  0.5000000000000000 
  0.4166666666666667  0.1666666666666667  0.6666666666666666 
  0.4166666666666667  0.1666666666666667  0.8333333333333334 
  0.4166666666666667  0.2500000000000000  0.0000000000000000 
  0.4166666666666667  0.2500000000000000  0.1666666666666667 
  0.4166666666666667  0.2500000000000000  0.3333333333333333 
  0.4166666666666667  0.2500000000000000  0.5000000000000000 
  0.4166666666666667  0.2500000000000000  0.6666666666666666 
  0.4166666666666667  0.2500000000000000  0.8333333333333334 
  0.4166666666666667  0.3333333333333333  0.0000000000000000 
  0.4166666666666667  0.3333333333333333  0.1666666666666667 
  0.4166666666666667  0.3333333333333333  0.3333333333333333 
  0.4166666666666667  0.3333333333333333  0.5000000000000000 
  0.4166666666666667  0.3333333333333333  0.6666666666666666 
  0.4166666666666667  0.3333333333333333  0.8333333333333334 
  0.4166666666666667  0.4166666666666667  0.0000000000000000 
  0.4166666666666667  0.4166666666666667  0.1666666666666667 
  0.4166666666666667  0.4166666666666667  0.3333333333333333 
  0.4166666666666667  0.4166666666666667  0.5000000000000000 
  0.4166666666666667  0.4166666666666667  0.6666666666666666 
  0.4166666666666667  0.4166666666666667  0.8333333333333334 
  0.4166666666666667  0.5000000000000000  0.0000000000000000 
  0.4166666666666667  0.5000000000000000  0.1666666666666667 
  0.4166666666666667  0.5000000000000000  0.3333333333333333 
  0.4166666666666667  0.5000000000000000  0.5000000000000000 
  0.4166666666666667  0.5000000000000000  0.6666666666666666 
  0.4166666666666667  0.5000000000000000  0.8333333333333334 
  0.4166666666666667  0.5833333333333334  0.0000000000000000 
  0.4166666666666667  0.5833333333333334  0.1666666666666667 
  0.4166666666666667  0.5833333333333334  0.3333333333333333 
  0.4166666666666667  0.5833333333333334  0.5000000000000000 
  0.4166666666666667  0.5833333333333334  0.6666666666666666 
  0.4166666666666667  0.5833333333333334  0.8333333333333334 
  0.4166666666666667  0.6666666666666666  0.0000000000000000 
  0.4166666666666667  0.6666666666666666  0.1666666666666667 
  0.4166666666666667  0.6666666666666666  0.3333333333333333 
  0.4166666666666667  0.6666666666666666  0.5000000000000000 
  0.4166666666666667  0.6666666666666666  0.6666666666666666 
  0.4166666666666667  0.6666666666666666  0.8333333333333334 
  0.4166666666666667  0.7500000000000000  0.0000000000000000 
  0.4166666666666667  0.7500000000000000  0.1666666666666667 
  0.4166666666666667  0.7500000000000000  0.3333333333333333 
  0.4166666666666667  0.7500000000000000  0.5000000000000000 
  0.4166666666666667  0.7500000000000000  0.6666666666666666 
  0.4166666666666667  0.7500000000000000  0.8333333333333334 
  0.4166666666666667  0.8333333333333334  0.0000000000000000 
  0.4166666666666667  0.8333333333333334  0.1666666666666667 
  0.4166666666666667  0.8333333333333334  0.3333333333333333 
  0.4166666666666667  0.8333333333333334  0.5000000000000000 
  0.4166666666666667  0.8333333333333334  0.6666666666666666 
  0.4166666666666667  0.8333333333333334  0.8333333333333334 
  0.4166666666666667  0.9166666666666666  0.0000000000000000 
  0.4166666666666667  0.9166666666666666  0.1666666666666667 
  0.4166666666666667  0.9166666666666666  0.3333333333333333 
  0.4166666666666667  0.9166666666666666  0.5000000000000000 
  0.4166666666666667  0.9166666666666666  0.6666666666666666 
  0.4166666666666667  0.9166666666666666  0.8333333333333334 
  0.5000000000000000  0.0000000000000000  0.0000000000000000 
  0.5000000000000000  0.0000000000000000  0.1666666666666667 
  0.5000000000000000  0.0000000000000000  0.3333333333333333 
  0.5000000000000000  0.0000000000000000  0.5000000000000000 
  0.5000000000000000  0.0000000000000000  0.6666666666666666 
  0.5000000000000000  0.0000000000000000  0.8333333333333334 
  0.5000000000000000  0.0833333333333333  0.0000000000000000 
  0.5000000000000000  0.0833333333333333  0.1666666666666667 
  0.5000000000000000  0.0833333333333333  0.3333333333333333 
  0.5000000000000000  0.0833333333333333  0.5000000000000000 
  0.5000000000000000  0.0833333333333333  0.6666666666666666 
  0.5000000000000000  0.0833333333333333  0.8333333333333334 
  0.5000000000000000  0.1666666666666667  0.0000000000000000 
  0.5000000000000000  0.1666666666666667  0.1666666666666667 
  0.5000000000000000  0.1666666666666667  0.3333333333333333 
  0.5000000000000000  0.1666666666666667  0.5000000000000000 
  0.5000000000000000  0.1666666666666667  0.6666666666666666 
  0.5000000000000000  0.1666666666666667  0.8333333333333334 
  0.5000000000000000  0.2500000000000000  0.0000000000000000 
  0.5000000000000000  0.2500000000000000  0.1666666666666667 
  0.5000000000000000  0.2500000000000000  0.3333333333333333 
  0.5000000000000000  0.2500000000000000  0.5000000000000000 
  0.5000000000000000  0.2500000000000000  0.6666666666666666 
  0.5000000000000000  0.2500000000000000  0.8333333333333334 
  0.5000000000000000  0.3333333333333333  0.0000000000000000 