&control
   prefix = 'BN'
   calculation = 'bands'
   restart_mode = 'from_scratch'
   wf_collect = .true.
   tstress = .true.
   tprnfor = .true.
   outdir = './'
   wfcdir = './'
   pseudo_dir = './'
   verbosity = 'high'
/
&system
   ibrav = 4
   celldm(1) = 4.731873875
   celldm(3) = 2.66022364217
   nat = 4
   ntyp = 2
   nbnd = 101
   ecutwfc = 70.0
/
&electrons
   electron_maxstep = 500
   conv_thr = 1.0d-10
   mixing_mode = 'plain'
   mixing_beta = 0.7
   mixing_ndim = 8
   diagonalization = 'david'
   diago_david_ndim = 4
   diago_full_acc = .true.
/
&ions
/
&cell
/
ATOMIC_SPECIES
   B  10.811   b.cpi.UPF
   N  14.007   n.cpi.UPF

ATOMIC_POSITIONS (crystal)
B       0.333333333   0.666666667   0.250000000
B       0.666666667   0.333333333   0.750000000
N       0.333333333   0.666666667   0.750000000
N       0.666666667   0.333333333   0.250000000

K_POINTS crystal
   144
  0.083333333  0.083333333  0.125000000   1.0
  0.083333333  0.083333333  0.375000000   1.0
  0.083333333  0.083333333  0.625000000   1.0
  0.083333333  0.083333333  0.875000000   1.0
  0.083333333  0.250000000  0.125000000   1.0
  0.083333333  0.250000000  0.375000000   1.0
  0.083333333  0.250000000  0.625000000   1.0
  0.083333333  0.250000000  0.875000000   1.0
  0.083333333  0.416666667  0.125000000   1.0
  0.083333333  0.416666667  0.375000000   1.0
  0.083333333  0.416666667  0.625000000   1.0
  0.083333333  0.416666667  0.875000000   1.0
  0.083333333  0.583333333  0.125000000   1.0
  0.083333333  0.583333333  0.375000000   1.0
  0.083333333  0.583333333  0.625000000   1.0
  0.083333333  0.583333333  0.875000000   1.0
  0.083333333  0.750000000  0.125000000   1.0
  0.083333333  0.750000000  0.375000000   1.0
  0.083333333  0.750000000  0.625000000   1.0
  0.083333333  0.750000000  0.875000000   1.0
  0.083333333  0.916666667  0.125000000   1.0
  0.083333333  0.916666667  0.375000000   1.0
  0.083333333  0.916666667  0.625000000   1.0
  0.083333333  0.916666667  0.875000000   1.0
  0.250000000  0.083333333  0.125000000   1.0
  0.250000000  0.083333333  0.375000000   1.0
  0.250000000  0.083333333  0.625000000   1.0
  0.250000000  0.083333333  0.875000000   1.0
  0.250000000  0.250000000  0.125000000   1.0
  0.250000000  0.250000000  0.375000000   1.0
  0.250000000  0.250000000  0.625000000   1.0
  0.250000000  0.250000000  0.875000000   1.0
  0.250000000  0.416666667  0.125000000   1.0
  0.250000000  0.416666667  0.375000000   1.0
  0.250000000  0.416666667  0.625000000   1.0
  0.250000000  0.416666667  0.875000000   1.0
  0.250000000  0.583333333  0.125000000   1.0
  0.250000000  0.583333333  0.375000000   1.0
  0.250000000  0.583333333  0.625000000   1.0
  0.250000000  0.583333333  0.875000000   1.0
  0.250000000  0.750000000  0.125000000   1.0
  0.250000000  0.750000000  0.375000000   1.0
  0.250000000  0.750000000  0.625000000   1.0
  0.250000000  0.750000000  0.875000000   1.0
  0.250000000  0.916666667  0.125000000   1.0
  0.250000000  0.916666667  0.375000000   1.0
  0.250000000  0.916666667  0.625000000   1.0
  0.250000000  0.916666667  0.875000000   1.0
  0.416666667  0.083333333  0.125000000   1.0
  0.416666667  0.083333333  0.375000000   1.0
  0.416666667  0.083333333  0.625000000   1.0
  0.416666667  0.083333333  0.875000000   1.0
  0.416666667  0.250000000  0.125000000   1.0
  0.416666667  0.250000000  0.375000000   1.0
  0.416666667  0.250000000  0.625000000   1.0
  0.416666667  0.250000000  0.875000000   1.0
  0.416666667  0.416666667  0.125000000   1.0
  0.416666667  0.416666667  0.375000000   1.0
  0.416666667  0.416666667  0.625000000   1.0
  0.416666667  0.416666667  0.875000000   1.0
  0.416666667  0.583333333  0.125000000   1.0
  0.416666667  0.583333333  0.375000000   1.0
  0.416666667  0.583333333  0.625000000   1.0
  0.416666667  0.583333333  0.875000000   1.0
  0.416666667  0.750000000  0.125000000   1.0
  0.416666667  0.750000000  0.375000000   1.0
  0.416666667  0.750000000  0.625000000   1.0
  0.416666667  0.750000000  0.875000000   1.0
  0.416666667  0.916666667  0.125000000   1.0
  0.416666667  0.916666667  0.375000000   1.0
  0.416666667  0.916666667  0.625000000   1.0
  0.416666667  0.916666667  0.875000000   1.0
  0.583333333  0.083333333  0.125000000   1.0
  0.583333333  0.083333333  0.375000000   1.0
  0.583333333  0.083333333  0.625000000   1.0
  0.583333333  0.083333333  0.875000000   1.0
  0.583333333  0.250000000  0.125000000   1.0
  0.583333333  0.250000000  0.375000000   1.0
  0.583333333  0.250000000  0.625000000   1.0
  0.583333333  0.250000000  0.875000000   1.0
  0.583333333  0.416666667  0.125000000   1.0
  0.583333333  0.416666667  0.375000000   1.0
  0.583333333  0.416666667  0.625000000   1.0
  0.583333333  0.416666667  0.875000000   1.0
  0.583333333  0.583333333  0.125000000   1.0
  0.583333333  0.583333333  0.375000000   1.0
  0.583333333  0.583333333  0.625000000   1.0
  0.583333333  0.583333333  0.875000000   1.0
  0.583333333  0.750000000  0.125000000   1.0
  0.583333333  0.750000000  0.375000000   1.0
  0.583333333  0.750000000  0.625000000   1.0
  0.583333333  0.750000000  0.875000000   1.0
  0.583333333  0.916666667  0.125000000   1.0
  0.583333333  0.916666667  0.375000000   1.0
  0.583333333  0.916666667  0.625000000   1.0
  0.583333333  0.916666667  0.875000000   1.0
  0.750000000  0.083333333  0.125000000   1.0
  0.750000000  0.083333333  0.375000000   1.0
  0.750000000  0.083333333  0.625000000   1.0
  0.750000000  0.083333333  0.875000000   1.0
  0.750000000  0.250000000  0.125000000   1.0
  0.750000000  0.250000000  0.375000000   1.0
  0.750000000  0.250000000  0.625000000   1.0
  0.750000000  0.250000000  0.875000000   1.0
  0.750000000  0.416666667  0.125000000   1.0
  0.750000000  0.416666667  0.375000000   1.0
  0.750000000  0.416666667  0.625000000   1.0
  0.750000000  0.416666667  0.875000000   1.0
  0.750000000  0.583333333  0.125000000   1.0
  0.750000000  0.583333333  0.375000000   1.0
  0.750000000  0.583333333  0.625000000   1.0
  0.750000000  0.583333333  0.875000000   1.0
  0.750000000  0.750000000  0.125000000   1.0
  0.750000000  0.750000000  0.375000000   1.0
  0.750000000  0.750000000  0.625000000   1.0
  0.750000000  0.750000000  0.875000000   1.0
  0.750000000  0.916666667  0.125000000   1.0
  0.750000000  0.916666667  0.375000000   1.0
  0.750000000  0.916666667  0.625000000   1.0
  0.750000000  0.916666667  0.875000000   1.0
  0.916666667  0.083333333  0.125000000   1.0
  0.916666667  0.083333333  0.375000000   1.0
  0.916666667  0.083333333  0.625000000   1.0
  0.916666667  0.083333333  0.875000000   1.0
  0.916666667  0.250000000  0.125000000   1.0
  0.916666667  0.250000000  0.375000000   1.0
  0.916666667  0.250000000  0.625000000   1.0
  0.916666667  0.250000000  0.875000000   1.0
  0.916666667  0.416666667  0.125000000   1.0
  0.916666667  0.416666667  0.375000000   1.0
  0.916666667  0.416666667  0.625000000   1.0
  0.916666667  0.416666667  0.875000000   1.0
  0.916666667  0.583333333  0.125000000   1.0
  0.916666667  0.583333333  0.375000000   1.0
  0.916666667  0.583333333  0.625000000   1.0
  0.916666667  0.583333333  0.875000000   1.0
  0.916666667  0.750000000  0.125000000   1.0
  0.916666667  0.750000000  0.375000000   1.0
  0.916666667  0.750000000  0.625000000   1.0
  0.916666667  0.750000000  0.875000000   1.0
  0.916666667  0.916666667  0.125000000   1.0
  0.916666667  0.916666667  0.375000000   1.0
  0.916666667  0.916666667  0.625000000   1.0
  0.916666667  0.916666667  0.875000000   1.0
