&control
   prefix = 'BN'
   calculation = 'bands'
   restart_mode = 'from_scratch'
   wf_collect = .true.
   tstress = .true.
   tprnfor = .true.
   outdir = './'
   wfcdir = './'
   pseudo_dir = './'
   verbosity = 'high'
/
&system
   ibrav = 4
   celldm(1) = 4.731873875
   celldm(3) = 2.66022364217
   nat = 4
   nbnd = 820
   ntyp = 2
   ecutwfc = 70.0
/
&electrons
   electron_maxstep = 500
   conv_thr = 1.0d-10
   mixing_mode = 'plain'
   mixing_beta = 0.7
   mixing_ndim = 8
   diagonalization = 'cg'
   diago_david_ndim = 4
   diago_full_acc = .true.
/
&ions
/
&cell
/
ATOMIC_SPECIES
   B  10.811   b.cpi.UPF
   N  14.007   n.cpi.UPF

ATOMIC_POSITIONS (crystal)
B       0.333333333   0.666666667   0.250000000
B       0.666666667   0.333333333   0.500000000
N       0.333333333   0.666666667   0.750000000
N       0.666666667   0.333333333   0.250000000

K_POINTS crystal
   864
0.027777778      0.027777778      0.000000000      1.0
0.027777778      0.027777778      0.166666667      1.0
0.027777778      0.027777778      0.333333333      1.0
0.027777778      0.027777778      0.500000000      1.0
0.027777778      0.027777778      0.666666667      1.0
0.027777778      0.027777778      0.833333333      1.0
0.027777778      0.111111111      0.000000000      1.0
0.027777778      0.111111111      0.166666667      1.0
0.027777778      0.111111111      0.333333333      1.0
0.027777778      0.111111111      0.500000000      1.0
0.027777778      0.111111111      0.666666667      1.0
0.027777778      0.111111111      0.833333333      1.0
0.027777778      0.194444445      0.000000000      1.0
0.027777778      0.194444445      0.166666667      1.0
0.027777778      0.194444445      0.333333333      1.0
0.027777778      0.194444445      0.500000000      1.0
0.027777778      0.194444445      0.666666667      1.0
0.027777778      0.194444445      0.833333333      1.0
0.027777778      0.277777778      0.000000000      1.0
0.027777778      0.277777778      0.166666667      1.0
0.027777778      0.277777778      0.333333333      1.0
0.027777778      0.277777778      0.500000000      1.0
0.027777778      0.277777778      0.666666667      1.0
0.027777778      0.277777778      0.833333333      1.0
0.027777778      0.361111111      0.000000000      1.0
0.027777778      0.361111111      0.166666667      1.0
0.027777778      0.361111111      0.333333333      1.0
0.027777778      0.361111111      0.500000000      1.0
0.027777778      0.361111111      0.666666667      1.0
0.027777778      0.361111111      0.833333333      1.0
0.027777778      0.444444445      0.000000000      1.0
0.027777778      0.444444445      0.166666667      1.0
0.027777778      0.444444445      0.333333333      1.0
0.027777778      0.444444445      0.500000000      1.0
0.027777778      0.444444445      0.666666667      1.0
0.027777778      0.444444445      0.833333333      1.0
0.027777778      0.527777778      0.000000000      1.0
0.027777778      0.527777778      0.166666667      1.0
0.027777778      0.527777778      0.333333333      1.0
0.027777778      0.527777778      0.500000000      1.0
0.027777778      0.527777778      0.666666667      1.0
0.027777778      0.527777778      0.833333333      1.0
0.027777778      0.611111111      0.000000000      1.0
0.027777778      0.611111111      0.166666667      1.0
0.027777778      0.611111111      0.333333333      1.0
0.027777778      0.611111111      0.500000000      1.0
0.027777778      0.611111111      0.666666667      1.0
0.027777778      0.611111111      0.833333333      1.0
0.027777778      0.694444445      0.000000000      1.0
0.027777778      0.694444445      0.166666667      1.0
0.027777778      0.694444445      0.333333333      1.0
0.027777778      0.694444445      0.500000000      1.0
0.027777778      0.694444445      0.666666667      1.0
0.027777778      0.694444445      0.833333333      1.0
0.027777778      0.777777778      0.000000000      1.0
0.027777778      0.777777778      0.166666667      1.0
0.027777778      0.777777778      0.333333333      1.0
0.027777778      0.777777778      0.500000000      1.0
0.027777778      0.777777778      0.666666667      1.0
0.027777778      0.777777778      0.833333333      1.0
0.027777778      0.861111111      0.000000000      1.0
0.027777778      0.861111111      0.166666667      1.0
0.027777778      0.861111111      0.333333333      1.0
0.027777778      0.861111111      0.500000000      1.0
0.027777778      0.861111111      0.666666667      1.0
0.027777778      0.861111111      0.833333333      1.0
0.027777778      0.944444445      0.000000000      1.0
0.027777778      0.944444445      0.166666667      1.0
0.027777778      0.944444445      0.333333333      1.0
0.027777778      0.944444445      0.500000000      1.0
0.027777778      0.944444445      0.666666667      1.0
0.027777778      0.944444445      0.833333333      1.0
0.111111111      0.027777778      0.000000000      1.0
0.111111111      0.027777778      0.166666667      1.0
0.111111111      0.027777778      0.333333333      1.0
0.111111111      0.027777778      0.500000000      1.0
0.111111111      0.027777778      0.666666667      1.0
0.111111111      0.027777778      0.833333333      1.0
0.111111111      0.111111111      0.000000000      1.0
0.111111111      0.111111111      0.166666667      1.0
0.111111111      0.111111111      0.333333333      1.0
0.111111111      0.111111111      0.500000000      1.0
0.111111111      0.111111111      0.666666667      1.0
0.111111111      0.111111111      0.833333333      1.0
0.111111111      0.194444445      0.000000000      1.0
0.111111111      0.194444445      0.166666667      1.0
0.111111111      0.194444445      0.333333333      1.0
0.111111111      0.194444445      0.500000000      1.0
0.111111111      0.194444445      0.666666667      1.0
0.111111111      0.194444445      0.833333333      1.0
0.111111111      0.277777778      0.000000000      1.0
0.111111111      0.277777778      0.166666667      1.0
0.111111111      0.277777778      0.333333333      1.0
0.111111111      0.277777778      0.500000000      1.0
0.111111111      0.277777778      0.666666667      1.0
0.111111111      0.277777778      0.833333333      1.0
0.111111111      0.361111111      0.000000000      1.0
0.111111111      0.361111111      0.166666667      1.0
0.111111111      0.361111111      0.333333333      1.0
0.111111111      0.361111111      0.500000000      1.0
0.111111111      0.361111111      0.666666667      1.0
0.111111111      0.361111111      0.833333333      1.0
0.111111111      0.444444445      0.000000000      1.0
0.111111111      0.444444445      0.166666667      1.0
0.111111111      0.444444445      0.333333333      1.0
0.111111111      0.444444445      0.500000000      1.0
0.111111111      0.444444445      0.666666667      1.0
0.111111111      0.444444445      0.833333333      1.0
0.111111111      0.527777778      0.000000000      1.0
0.111111111      0.527777778      0.166666667      1.0
0.111111111      0.527777778      0.333333333      1.0
0.111111111      0.527777778      0.500000000      1.0
0.111111111      0.527777778      0.666666667      1.0
0.111111111      0.527777778      0.833333333      1.0
0.111111111      0.611111111      0.000000000      1.0
0.111111111      0.611111111      0.166666667      1.0
0.111111111      0.611111111      0.333333333      1.0
0.111111111      0.611111111      0.500000000      1.0
0.111111111      0.611111111      0.666666667      1.0
0.111111111      0.611111111      0.833333333      1.0
0.111111111      0.694444445      0.000000000      1.0
0.111111111      0.694444445      0.166666667      1.0
0.111111111      0.694444445      0.333333333      1.0
0.111111111      0.694444445      0.500000000      1.0
0.111111111      0.694444445      0.666666667      1.0
0.111111111      0.694444445      0.833333333      1.0
0.111111111      0.777777778      0.000000000      1.0
0.111111111      0.777777778      0.166666667      1.0
0.111111111      0.777777778      0.333333333      1.0
0.111111111      0.777777778      0.500000000      1.0
0.111111111      0.777777778      0.666666667      1.0
0.111111111      0.777777778      0.833333333      1.0
0.111111111      0.861111111      0.000000000      1.0
0.111111111      0.861111111      0.166666667      1.0
0.111111111      0.861111111      0.333333333      1.0
0.111111111      0.861111111      0.500000000      1.0
0.111111111      0.861111111      0.666666667      1.0
0.111111111      0.861111111      0.833333333      1.0
0.111111111      0.944444445      0.000000000      1.0
0.111111111      0.944444445      0.166666667      1.0
0.111111111      0.944444445      0.333333333      1.0
0.111111111      0.944444445      0.500000000      1.0
0.111111111      0.944444445      0.666666667      1.0
0.111111111      0.944444445      0.833333333      1.0
0.194444445      0.027777778      0.000000000      1.0
0.194444445      0.027777778      0.166666667      1.0
0.194444445      0.027777778      0.333333333      1.0
0.194444445      0.027777778      0.500000000      1.0
0.194444445      0.027777778      0.666666667      1.0
0.194444445      0.027777778      0.833333333      1.0
0.194444445      0.111111111      0.000000000      1.0
0.194444445      0.111111111      0.166666667      1.0
0.194444445      0.111111111      0.333333333      1.0
0.194444445      0.111111111      0.500000000      1.0
0.194444445      0.111111111      0.666666667      1.0
0.194444445      0.111111111      0.833333333      1.0
0.194444445      0.194444445      0.000000000      1.0
0.194444445      0.194444445      0.166666667      1.0
0.194444445      0.194444445      0.333333333      1.0
0.194444445      0.194444445      0.500000000      1.0
0.194444445      0.194444445      0.666666667      1.0
0.194444445      0.194444445      0.833333333      1.0
0.194444445      0.277777778      0.000000000      1.0
0.194444445      0.277777778      0.166666667      1.0
0.194444445      0.277777778      0.333333333      1.0
0.194444445      0.277777778      0.500000000      1.0
0.194444445      0.277777778      0.666666667      1.0
0.194444445      0.277777778      0.833333333      1.0
0.194444445      0.361111111      0.000000000      1.0
0.194444445      0.361111111      0.166666667      1.0
0.194444445      0.361111111      0.333333333      1.0
0.194444445      0.361111111      0.500000000      1.0
0.194444445      0.361111111      0.666666667      1.0
0.194444445      0.361111111      0.833333333      1.0
0.194444445      0.444444445      0.000000000      1.0
0.194444445      0.444444445      0.166666667      1.0
0.194444445      0.444444445      0.333333333      1.0
0.194444445      0.444444445      0.500000000      1.0
0.194444445      0.444444445      0.666666667      1.0
0.194444445      0.444444445      0.833333333      1.0
0.194444445      0.527777778      0.000000000      1.0
0.194444445      0.527777778      0.166666667      1.0
0.194444445      0.527777778      0.333333333      1.0
0.194444445      0.527777778      0.500000000      1.0
0.194444445      0.527777778      0.666666667      1.0
0.194444445      0.527777778      0.833333333      1.0
0.194444445      0.611111111      0.000000000      1.0
0.194444445      0.611111111      0.166666667      1.0
0.194444445      0.611111111      0.333333333      1.0
0.194444445      0.611111111      0.500000000      1.0
0.194444445      0.611111111      0.666666667      1.0
0.194444445      0.611111111      0.833333333      1.0
0.194444445      0.694444445      0.000000000      1.0
0.194444445      0.694444445      0.166666667      1.0
0.194444445      0.694444445      0.333333333      1.0
0.194444445      0.694444445      0.500000000      1.0
0.194444445      0.694444445      0.666666667      1.0
0.194444445      0.694444445      0.833333333      1.0
0.194444445      0.777777778      0.000000000      1.0
0.194444445      0.777777778      0.166666667      1.0
0.194444445      0.777777778      0.333333333      1.0
0.194444445      0.777777778      0.500000000      1.0
0.194444445      0.777777778      0.666666667      1.0
0.194444445      0.777777778      0.833333333      1.0
0.194444445      0.861111111      0.000000000      1.0
0.194444445      0.861111111      0.166666667      1.0
0.194444445      0.861111111      0.333333333      1.0
0.194444445      0.861111111      0.500000000      1.0
0.194444445      0.861111111      0.666666667      1.0
0.194444445      0.861111111      0.833333333      1.0
0.194444445      0.944444445      0.000000000      1.0
0.194444445      0.944444445      0.166666667      1.0
0.194444445      0.944444445      0.333333333      1.0
0.194444445      0.944444445      0.500000000      1.0
0.194444445      0.944444445      0.666666667      1.0
0.194444445      0.944444445      0.833333333      1.0
0.277777778      0.027777778      0.000000000      1.0
0.277777778      0.027777778      0.166666667      1.0
0.277777778      0.027777778      0.333333333      1.0
0.277777778      0.027777778      0.500000000      1.0
0.277777778      0.027777778      0.666666667      1.0
0.277777778      0.027777778      0.833333333      1.0
0.277777778      0.111111111      0.000000000      1.0
0.277777778      0.111111111      0.166666667      1.0
0.277777778      0.111111111      0.333333333      1.0
0.277777778      0.111111111      0.500000000      1.0
0.277777778      0.111111111      0.666666667      1.0
0.277777778      0.111111111      0.833333333      1.0
0.277777778      0.194444445      0.000000000      1.0
0.277777778      0.194444445      0.166666667      1.0
0.277777778      0.194444445      0.333333333      1.0
0.277777778      0.194444445      0.500000000      1.0
0.277777778      0.194444445      0.666666667      1.0
0.277777778      0.194444445      0.833333333      1.0
0.277777778      0.277777778      0.000000000      1.0
0.277777778      0.277777778      0.166666667      1.0
0.277777778      0.277777778      0.333333333      1.0
0.277777778      0.277777778      0.500000000      1.0
0.277777778      0.277777778      0.666666667      1.0
0.277777778      0.277777778      0.833333333      1.0
0.277777778      0.361111111      0.000000000      1.0
0.277777778      0.361111111      0.166666667      1.0
0.277777778      0.361111111      0.333333333      1.0
0.277777778      0.361111111      0.500000000      1.0
0.277777778      0.361111111      0.666666667      1.0
0.277777778      0.361111111      0.833333333      1.0
0.277777778      0.444444445      0.000000000      1.0
0.277777778      0.444444445      0.166666667      1.0
0.277777778      0.444444445      0.333333333      1.0
0.277777778      0.444444445      0.500000000      1.0
0.277777778      0.444444445      0.666666667      1.0
0.277777778      0.444444445      0.833333333      1.0
0.277777778      0.527777778      0.000000000      1.0
0.277777778      0.527777778      0.166666667      1.0
0.277777778      0.527777778      0.333333333      1.0
0.277777778      0.527777778      0.500000000      1.0
0.277777778      0.527777778      0.666666667      1.0
0.277777778      0.527777778      0.833333333      1.0
0.277777778      0.611111111      0.000000000      1.0
0.277777778      0.611111111      0.166666667      1.0
0.277777778      0.611111111      0.333333333      1.0
0.277777778      0.611111111      0.500000000      1.0
0.277777778      0.611111111      0.666666667      1.0
0.277777778      0.611111111      0.833333333      1.0
0.277777778      0.694444445      0.000000000      1.0
0.277777778      0.694444445      0.166666667      1.0
0.277777778      0.694444445      0.333333333      1.0
0.277777778      0.694444445      0.500000000      1.0
0.277777778      0.694444445      0.666666667      1.0
0.277777778      0.694444445      0.833333333      1.0
0.277777778      0.777777778      0.000000000      1.0
0.277777778      0.777777778      0.166666667      1.0
0.277777778      0.777777778      0.333333333      1.0
0.277777778      0.777777778      0.500000000      1.0
0.277777778      0.777777778      0.666666667      1.0
0.277777778      0.777777778      0.833333333      1.0
0.277777778      0.861111111      0.000000000      1.0
0.277777778      0.861111111      0.166666667      1.0
0.277777778      0.861111111      0.333333333      1.0
0.277777778      0.861111111      0.500000000      1.0
0.277777778      0.861111111      0.666666667      1.0
0.277777778      0.861111111      0.833333333      1.0
0.277777778      0.944444445      0.000000000      1.0
0.277777778      0.944444445      0.166666667      1.0
0.277777778      0.944444445      0.333333333      1.0
0.277777778      0.944444445      0.500000000      1.0
0.277777778      0.944444445      0.666666667      1.0
0.277777778      0.944444445      0.833333333      1.0
0.361111111      0.027777778      0.000000000      1.0
0.361111111      0.027777778      0.166666667      1.0
0.361111111      0.027777778      0.333333333      1.0
0.361111111      0.027777778      0.500000000      1.0
0.361111111      0.027777778      0.666666667      1.0
0.361111111      0.027777778      0.833333333      1.0
0.361111111      0.111111111      0.000000000      1.0
0.361111111      0.111111111      0.166666667      1.0
0.361111111      0.111111111      0.333333333      1.0
0.361111111      0.111111111      0.500000000      1.0
0.361111111      0.111111111      0.666666667      1.0
0.361111111      0.111111111      0.833333333      1.0
0.361111111      0.194444445      0.000000000      1.0
0.361111111      0.194444445      0.166666667      1.0
0.361111111      0.194444445      0.333333333      1.0
0.361111111      0.194444445      0.500000000      1.0
0.361111111      0.194444445      0.666666667      1.0
0.361111111      0.194444445      0.833333333      1.0
0.361111111      0.277777778      0.000000000      1.0
0.361111111      0.277777778      0.166666667      1.0
0.361111111      0.277777778      0.333333333      1.0
0.361111111      0.277777778      0.500000000      1.0
0.361111111      0.277777778      0.666666667      1.0
0.361111111      0.277777778      0.833333333      1.0
0.361111111      0.361111111      0.000000000      1.0
0.361111111      0.361111111      0.166666667      1.0
0.361111111      0.361111111      0.333333333      1.0
0.361111111      0.361111111      0.500000000      1.0
0.361111111      0.361111111      0.666666667      1.0
0.361111111      0.361111111      0.833333333      1.0
0.361111111      0.444444445      0.000000000      1.0
0.361111111      0.444444445      0.166666667      1.0
0.361111111      0.444444445      0.333333333      1.0
0.361111111      0.444444445      0.500000000      1.0
0.361111111      0.444444445      0.666666667      1.0
0.361111111      0.444444445      0.833333333      1.0
0.361111111      0.527777778      0.000000000      1.0
0.361111111      0.527777778      0.166666667      1.0
0.361111111      0.527777778      0.333333333      1.0
0.361111111      0.527777778      0.500000000      1.0
0.361111111      0.527777778      0.666666667      1.0
0.361111111      0.527777778      0.833333333      1.0
0.361111111      0.611111111      0.000000000      1.0
0.361111111      0.611111111      0.166666667      1.0
0.361111111      0.611111111      0.333333333      1.0
0.361111111      0.611111111      0.500000000      1.0
0.361111111      0.611111111      0.666666667      1.0
0.361111111      0.611111111      0.833333333      1.0
0.361111111      0.694444445      0.000000000      1.0
0.361111111      0.694444445      0.166666667      1.0
0.361111111      0.694444445      0.333333333      1.0
0.361111111      0.694444445      0.500000000      1.0
0.361111111      0.694444445      0.666666667      1.0
0.361111111      0.694444445      0.833333333      1.0
0.361111111      0.777777778      0.000000000      1.0
0.361111111      0.777777778      0.166666667      1.0
0.361111111      0.777777778      0.333333333      1.0
0.361111111      0.777777778      0.500000000      1.0
0.361111111      0.777777778      0.666666667      1.0
0.361111111      0.777777778      0.833333333      1.0
0.361111111      0.861111111      0.000000000      1.0
0.361111111      0.861111111      0.166666667      1.0
0.361111111      0.861111111      0.333333333      1.0
0.361111111      0.861111111      0.500000000      1.0
0.361111111      0.861111111      0.666666667      1.0
0.361111111      0.861111111      0.833333333      1.0
0.361111111      0.944444445      0.000000000      1.0
0.361111111      0.944444445      0.166666667      1.0
0.361111111      0.944444445      0.333333333      1.0
0.361111111      0.944444445      0.500000000      1.0
0.361111111      0.944444445      0.666666667      1.0
0.361111111      0.944444445      0.833333333      1.0
0.444444445      0.027777778      0.000000000      1.0
0.444444445      0.027777778      0.166666667      1.0
0.444444445      0.027777778      0.333333333      1.0
0.444444445      0.027777778      0.500000000      1.0
0.444444445      0.027777778      0.666666667      1.0
0.444444445      0.027777778      0.833333333      1.0
0.444444445      0.111111111      0.000000000      1.0
0.444444445      0.111111111      0.166666667      1.0
0.444444445      0.111111111      0.333333333      1.0
0.444444445      0.111111111      0.500000000      1.0
0.444444445      0.111111111      0.666666667      1.0
0.444444445      0.111111111      0.833333333      1.0
0.444444445      0.194444445      0.000000000      1.0
0.444444445      0.194444445      0.166666667      1.0
0.444444445      0.194444445      0.333333333      1.0
0.444444445      0.194444445      0.500000000      1.0
0.444444445      0.194444445      0.666666667      1.0
0.444444445      0.194444445      0.833333333      1.0
0.444444445      0.277777778      0.000000000      1.0
0.444444445      0.277777778      0.166666667      1.0
0.444444445      0.277777778      0.333333333      1.0
0.444444445      0.277777778      0.500000000      1.0
0.444444445      0.277777778      0.666666667      1.0
0.444444445      0.277777778      0.833333333      1.0
0.444444445      0.361111111      0.000000000      1.0
0.444444445      0.361111111      0.166666667      1.0
0.444444445      0.361111111      0.333333333      1.0
0.444444445      0.361111111      0.500000000      1.0
0.444444445      0.361111111      0.666666667      1.0
0.444444445      0.361111111      0.833333333      1.0
0.444444445      0.444444445      0.000000000      1.0
0.444444445      0.444444445      0.166666667      1.0
0.444444445      0.444444445      0.333333333      1.0
0.444444445      0.444444445      0.500000000      1.0
0.444444445      0.444444445      0.666666667      1.0
0.444444445      0.444444445      0.833333333      1.0
0.444444445      0.527777778      0.000000000      1.0
0.444444445      0.527777778      0.166666667      1.0
0.444444445      0.527777778      0.333333333      1.0
0.444444445      0.527777778      0.500000000      1.0
0.444444445      0.527777778      0.666666667      1.0
0.444444445      0.527777778      0.833333333      1.0
0.444444445      0.611111111      0.000000000      1.0
0.444444445      0.611111111      0.166666667      1.0
0.444444445      0.611111111      0.333333333      1.0
0.444444445      0.611111111      0.500000000      1.0
0.444444445      0.611111111      0.666666667      1.0
0.444444445      0.611111111      0.833333333      1.0
0.444444445      0.694444445      0.000000000      1.0
0.444444445      0.694444445      0.166666667      1.0
0.444444445      0.694444445      0.333333333      1.0
0.444444445      0.694444445      0.500000000      1.0
0.444444445      0.694444445      0.666666667      1.0
0.444444445      0.694444445      0.833333333      1.0
0.444444445      0.777777778      0.000000000      1.0
0.444444445      0.777777778      0.166666667      1.0
0.444444445      0.777777778      0.333333333      1.0
0.444444445      0.777777778      0.500000000      1.0
0.444444445      0.777777778      0.666666667      1.0
0.444444445      0.777777778      0.833333333      1.0
0.444444445      0.861111111      0.000000000      1.0
0.444444445      0.861111111      0.166666667      1.0
0.444444445      0.861111111      0.333333333      1.0
0.444444445      0.861111111      0.500000000      1.0
0.444444445      0.861111111      0.666666667      1.0
0.444444445      0.861111111      0.833333333      1.0
0.444444445      0.944444445      0.000000000      1.0
0.444444445      0.944444445      0.166666667      1.0
0.444444445      0.944444445      0.333333333      1.0
0.444444445      0.944444445      0.500000000      1.0
0.444444445      0.944444445      0.666666667      1.0
0.444444445      0.944444445      0.833333333      1.0
0.527777778      0.027777778      0.000000000      1.0
0.527777778      0.027777778      0.166666667      1.0
0.527777778      0.027777778      0.333333333      1.0
0.527777778      0.027777778      0.500000000      1.0
0.527777778      0.027777778      0.666666667      1.0
0.527777778      0.027777778      0.833333333      1.0
0.527777778      0.111111111      0.000000000      1.0
0.527777778      0.111111111      0.166666667      1.0
0.527777778      0.111111111      0.333333333      1.0
0.527777778      0.111111111      0.500000000      1.0
0.527777778      0.111111111      0.666666667      1.0
0.527777778      0.111111111      0.833333333      1.0
0.527777778      0.194444445      0.000000000      1.0
0.527777778      0.194444445      0.166666667      1.0
0.527777778      0.194444445      0.333333333      1.0
0.527777778      0.194444445      0.500000000      1.0
0.527777778      0.194444445      0.666666667      1.0
0.527777778      0.194444445      0.833333333      1.0
0.527777778      0.277777778      0.000000000      1.0
0.527777778      0.277777778      0.166666667      1.0
0.527777778      0.277777778      0.333333333      1.0
0.527777778      0.277777778      0.500000000      1.0
0.527777778      0.277777778      0.666666667      1.0
0.527777778      0.277777778      0.833333333      1.0
0.527777778      0.361111111      0.000000000      1.0
0.527777778      0.361111111      0.166666667      1.0
0.527777778      0.361111111      0.333333333      1.0
0.527777778      0.361111111      0.500000000      1.0
0.527777778      0.361111111      0.666666667      1.0
0.527777778      0.361111111      0.833333333      1.0
0.527777778      0.444444445      0.000000000      1.0
0.527777778      0.444444445      0.166666667      1.0
0.527777778      0.444444445      0.333333333      1.0
0.527777778      0.444444445      0.500000000      1.0
0.527777778      0.444444445      0.666666667      1.0
0.527777778      0.444444445      0.833333333      1.0
0.527777778      0.527777778      0.000000000      1.0
0.527777778      0.527777778      0.166666667      1.0
0.527777778      0.527777778      0.333333333      1.0
0.527777778      0.527777778      0.500000000      1.0
0.527777778      0.527777778      0.666666667      1.0
0.527777778      0.527777778      0.833333333      1.0
0.527777778      0.611111111      0.000000000      1.0
0.527777778      0.611111111      0.166666667      1.0
0.527777778      0.611111111      0.333333333      1.0
0.527777778      0.611111111      0.500000000      1.0
0.527777778      0.611111111      0.666666667      1.0
0.527777778      0.611111111      0.833333333      1.0
0.527777778      0.694444445      0.000000000      1.0
0.527777778      0.694444445      0.166666667      1.0
0.527777778      0.694444445      0.333333333      1.0
0.527777778      0.694444445      0.500000000      1.0
0.527777778      0.694444445      0.666666667      1.0
0.527777778      0.694444445      0.833333333      1.0
0.527777778      0.777777778      0.000000000      1.0
0.527777778      0.777777778      0.166666667      1.0
0.527777778      0.777777778      0.333333333      1.0
0.527777778      0.777777778      0.500000000      1.0
0.527777778      0.777777778      0.666666667      1.0
0.527777778      0.777777778      0.833333333      1.0
0.527777778      0.861111111      0.000000000      1.0
0.527777778      0.861111111      0.166666667      1.0
0.527777778      0.861111111      0.333333333      1.0
0.527777778      0.861111111      0.500000000      1.0
0.527777778      0.861111111      0.666666667      1.0
0.527777778      0.861111111      0.833333333      1.0
0.527777778      0.944444445      0.000000000      1.0
0.527777778      0.944444445      0.166666667      1.0
0.527777778      0.944444445      0.333333333      1.0
0.527777778      0.944444445      0.500000000      1.0
0.527777778      0.944444445      0.666666667      1.0
0.527777778      0.944444445      0.833333333      1.0
0.611111111      0.027777778      0.000000000      1.0
0.611111111      0.027777778      0.166666667      1.0
0.611111111      0.027777778      0.333333333      1.0
0.611111111      0.027777778      0.500000000      1.0
0.611111111      0.027777778      0.666666667      1.0
0.611111111      0.027777778      0.833333333      1.0
0.611111111      0.111111111      0.000000000      1.0
0.611111111      0.111111111      0.166666667      1.0
0.611111111      0.111111111      0.333333333      1.0
0.611111111      0.111111111      0.500000000      1.0
0.611111111      0.111111111      0.666666667      1.0
0.611111111      0.111111111      0.833333333      1.0
0.611111111      0.194444445      0.000000000      1.0
0.611111111      0.194444445      0.166666667      1.0
0.611111111      0.194444445      0.333333333      1.0
0.611111111      0.194444445      0.500000000      1.0
0.611111111      0.194444445      0.666666667      1.0
0.611111111      0.194444445      0.833333333      1.0
0.611111111      0.277777778      0.000000000      1.0
0.611111111      0.277777778      0.166666667      1.0
0.611111111      0.277777778      0.333333333      1.0
0.611111111      0.277777778      0.500000000      1.0
0.611111111      0.277777778      0.666666667      1.0
0.611111111      0.277777778      0.833333333      1.0
0.611111111      0.361111111      0.000000000      1.0