&control
   prefix = 'BN'
   calculation = 'bands'
   restart_mode = 'from_scratch'
   wf_collect = .true.
   tstress = .true.
   tprnfor = .true.
   outdir = './'
   wfcdir = './'
   pseudo_dir = './'
   verbosity = 'high'
/
&system
   ibrav = 4
   celldm(1) = 4.731873875
   celldm(3) = 2.66022364217
   nat = 4
   ntyp = 2
   nbnd = 820
   ecutwfc = 70.0
/
&electrons
   electron_maxstep = 500
   conv_thr = 1.0d-10
   mixing_mode = 'plain'
   mixing_beta = 0.7
   mixing_ndim = 8
   diagonalization = 'cg'
   diago_david_ndim = 4
   diago_full_acc = .true.
/
&ions
/
&cell
/
ATOMIC_SPECIES
   B  10.811   b.cpi.UPF
   N  14.007   n.cpi.UPF

ATOMIC_POSITIONS (crystal)
B       0.333333333   0.666666667   0.250000000
B       0.666666667   0.333333333   0.500000000
N       0.333333333   0.666666667   0.750000000
N       0.666666667   0.333333333   0.250000000

K_POINTS crystal
864
  0.0000000000000000  0.0000000000000000  0.0000000000000000  1.157407e-03 
  0.0000000000000000  0.0000000000000000  0.1666666666666667  1.157407e-03 
  0.0000000000000000  0.0000000000000000  0.3333333333333333  1.157407e-03 
  0.0000000000000000  0.0000000000000000  0.5000000000000000  1.157407e-03 
  0.0000000000000000  0.0000000000000000  0.6666666666666666  1.157407e-03 
  0.0000000000000000  0.0000000000000000  0.8333333333333334  1.157407e-03 
  0.0000000000000000  0.0833333333333333  0.0000000000000000  1.157407e-03 
  0.0000000000000000  0.0833333333333333  0.1666666666666667  1.157407e-03 
  0.0000000000000000  0.0833333333333333  0.3333333333333333  1.157407e-03 
  0.0000000000000000  0.0833333333333333  0.5000000000000000  1.157407e-03 
  0.0000000000000000  0.0833333333333333  0.6666666666666666  1.157407e-03 
  0.0000000000000000  0.0833333333333333  0.8333333333333334  1.157407e-03 
  0.0000000000000000  0.1666666666666667  0.0000000000000000  1.157407e-03 
  0.0000000000000000  0.1666666666666667  0.1666666666666667  1.157407e-03 
  0.0000000000000000  0.1666666666666667  0.3333333333333333  1.157407e-03 
  0.0000000000000000  0.1666666666666667  0.5000000000000000  1.157407e-03 
  0.0000000000000000  0.1666666666666667  0.6666666666666666  1.157407e-03 
  0.0000000000000000  0.1666666666666667  0.8333333333333334  1.157407e-03 
  0.0000000000000000  0.2500000000000000  0.0000000000000000  1.157407e-03 
  0.0000000000000000  0.2500000000000000  0.1666666666666667  1.157407e-03 
  0.0000000000000000  0.2500000000000000  0.3333333333333333  1.157407e-03 
  0.0000000000000000  0.2500000000000000  0.5000000000000000  1.157407e-03 
  0.0000000000000000  0.2500000000000000  0.6666666666666666  1.157407e-03 
  0.0000000000000000  0.2500000000000000  0.8333333333333334  1.157407e-03 
  0.0000000000000000  0.3333333333333333  0.0000000000000000  1.157407e-03 
  0.0000000000000000  0.3333333333333333  0.1666666666666667  1.157407e-03 
  0.0000000000000000  0.3333333333333333  0.3333333333333333  1.157407e-03 
  0.0000000000000000  0.3333333333333333  0.5000000000000000  1.157407e-03 
  0.0000000000000000  0.3333333333333333  0.6666666666666666  1.157407e-03 
  0.0000000000000000  0.3333333333333333  0.8333333333333334  1.157407e-03 
  0.0000000000000000  0.4166666666666667  0.0000000000000000  1.157407e-03 
  0.0000000000000000  0.4166666666666667  0.1666666666666667  1.157407e-03 
  0.0000000000000000  0.4166666666666667  0.3333333333333333  1.157407e-03 
  0.0000000000000000  0.4166666666666667  0.5000000000000000  1.157407e-03 
  0.0000000000000000  0.4166666666666667  0.6666666666666666  1.157407e-03 
  0.0000000000000000  0.4166666666666667  0.8333333333333334  1.157407e-03 
  0.0000000000000000  0.5000000000000000  0.0000000000000000  1.157407e-03 
  0.0000000000000000  0.5000000000000000  0.1666666666666667  1.157407e-03 
  0.0000000000000000  0.5000000000000000  0.3333333333333333  1.157407e-03 
  0.0000000000000000  0.5000000000000000  0.5000000000000000  1.157407e-03 
  0.0000000000000000  0.5000000000000000  0.6666666666666666  1.157407e-03 
  0.0000000000000000  0.5000000000000000  0.8333333333333334  1.157407e-03 
  0.0000000000000000  0.5833333333333334  0.0000000000000000  1.157407e-03 
  0.0000000000000000  0.5833333333333334  0.1666666666666667  1.157407e-03 
  0.0000000000000000  0.5833333333333334  0.3333333333333333  1.157407e-03 
  0.0000000000000000  0.5833333333333334  0.5000000000000000  1.157407e-03 
  0.0000000000000000  0.5833333333333334  0.6666666666666666  1.157407e-03 
  0.0000000000000000  0.5833333333333334  0.8333333333333334  1.157407e-03 
  0.0000000000000000  0.6666666666666666  0.0000000000000000  1.157407e-03 
  0.0000000000000000  0.6666666666666666  0.1666666666666667  1.157407e-03 
  0.0000000000000000  0.6666666666666666  0.3333333333333333  1.157407e-03 
  0.0000000000000000  0.6666666666666666  0.5000000000000000  1.157407e-03 
  0.0000000000000000  0.6666666666666666  0.6666666666666666  1.157407e-03 
  0.0000000000000000  0.6666666666666666  0.8333333333333334  1.157407e-03 
  0.0000000000000000  0.7500000000000000  0.0000000000000000  1.157407e-03 
  0.0000000000000000  0.7500000000000000  0.1666666666666667  1.157407e-03 
  0.0000000000000000  0.7500000000000000  0.3333333333333333  1.157407e-03 
  0.0000000000000000  0.7500000000000000  0.5000000000000000  1.157407e-03 
  0.0000000000000000  0.7500000000000000  0.6666666666666666  1.157407e-03 
  0.0000000000000000  0.7500000000000000  0.8333333333333334  1.157407e-03 
  0.0000000000000000  0.8333333333333334  0.0000000000000000  1.157407e-03 
  0.0000000000000000  0.8333333333333334  0.1666666666666667  1.157407e-03 
  0.0000000000000000  0.8333333333333334  0.3333333333333333  1.157407e-03 
  0.0000000000000000  0.8333333333333334  0.5000000000000000  1.157407e-03 
  0.0000000000000000  0.8333333333333334  0.6666666666666666  1.157407e-03 
  0.0000000000000000  0.8333333333333334  0.8333333333333334  1.157407e-03 
  0.0000000000000000  0.9166666666666666  0.0000000000000000  1.157407e-03 
  0.0000000000000000  0.9166666666666666  0.1666666666666667  1.157407e-03 
  0.0000000000000000  0.9166666666666666  0.3333333333333333  1.157407e-03 
  0.0000000000000000  0.9166666666666666  0.5000000000000000  1.157407e-03 
  0.0000000000000000  0.9166666666666666  0.6666666666666666  1.157407e-03 
  0.0000000000000000  0.9166666666666666  0.8333333333333334  1.157407e-03 
  0.0833333333333333  0.0000000000000000  0.0000000000000000  1.157407e-03 
  0.0833333333333333  0.0000000000000000  0.1666666666666667  1.157407e-03 
  0.0833333333333333  0.0000000000000000  0.3333333333333333  1.157407e-03 
  0.0833333333333333  0.0000000000000000  0.5000000000000000  1.157407e-03 
  0.0833333333333333  0.0000000000000000  0.6666666666666666  1.157407e-03 
  0.0833333333333333  0.0000000000000000  0.8333333333333334  1.157407e-03 
  0.0833333333333333  0.0833333333333333  0.0000000000000000  1.157407e-03 
  0.0833333333333333  0.0833333333333333  0.1666666666666667  1.157407e-03 
  0.0833333333333333  0.0833333333333333  0.3333333333333333  1.157407e-03 
  0.0833333333333333  0.0833333333333333  0.5000000000000000  1.157407e-03 
  0.0833333333333333  0.0833333333333333  0.6666666666666666  1.157407e-03 
  0.0833333333333333  0.0833333333333333  0.8333333333333334  1.157407e-03 
  0.0833333333333333  0.1666666666666667  0.0000000000000000  1.157407e-03 
  0.0833333333333333  0.1666666666666667  0.1666666666666667  1.157407e-03 
  0.0833333333333333  0.1666666666666667  0.3333333333333333  1.157407e-03 
  0.0833333333333333  0.1666666666666667  0.5000000000000000  1.157407e-03 
  0.0833333333333333  0.1666666666666667  0.6666666666666666  1.157407e-03 
  0.0833333333333333  0.1666666666666667  0.8333333333333334  1.157407e-03 
  0.0833333333333333  0.2500000000000000  0.0000000000000000  1.157407e-03 
  0.0833333333333333  0.2500000000000000  0.1666666666666667  1.157407e-03 
  0.0833333333333333  0.2500000000000000  0.3333333333333333  1.157407e-03 
  0.0833333333333333  0.2500000000000000  0.5000000000000000  1.157407e-03 
  0.0833333333333333  0.2500000000000000  0.6666666666666666  1.157407e-03 
  0.0833333333333333  0.2500000000000000  0.8333333333333334  1.157407e-03 
  0.0833333333333333  0.3333333333333333  0.0000000000000000  1.157407e-03 
  0.0833333333333333  0.3333333333333333  0.1666666666666667  1.157407e-03 
  0.0833333333333333  0.3333333333333333  0.3333333333333333  1.157407e-03 
  0.0833333333333333  0.3333333333333333  0.5000000000000000  1.157407e-03 
  0.0833333333333333  0.3333333333333333  0.6666666666666666  1.157407e-03 
  0.0833333333333333  0.3333333333333333  0.8333333333333334  1.157407e-03 
  0.0833333333333333  0.4166666666666667  0.0000000000000000  1.157407e-03 
  0.0833333333333333  0.4166666666666667  0.1666666666666667  1.157407e-03 
  0.0833333333333333  0.4166666666666667  0.3333333333333333  1.157407e-03 
  0.0833333333333333  0.4166666666666667  0.5000000000000000  1.157407e-03 
  0.0833333333333333  0.4166666666666667  0.6666666666666666  1.157407e-03 
  0.0833333333333333  0.4166666666666667  0.8333333333333334  1.157407e-03 
  0.0833333333333333  0.5000000000000000  0.0000000000000000  1.157407e-03 
  0.0833333333333333  0.5000000000000000  0.1666666666666667  1.157407e-03 
  0.0833333333333333  0.5000000000000000  0.3333333333333333  1.157407e-03 
  0.0833333333333333  0.5000000000000000  0.5000000000000000  1.157407e-03 
  0.0833333333333333  0.5000000000000000  0.6666666666666666  1.157407e-03 
  0.0833333333333333  0.5000000000000000  0.8333333333333334  1.157407e-03 
  0.0833333333333333  0.5833333333333334  0.0000000000000000  1.157407e-03 
  0.0833333333333333  0.5833333333333334  0.1666666666666667  1.157407e-03 
  0.0833333333333333  0.5833333333333334  0.3333333333333333  1.157407e-03 
  0.0833333333333333  0.5833333333333334  0.5000000000000000  1.157407e-03 
  0.0833333333333333  0.5833333333333334  0.6666666666666666  1.157407e-03 
  0.0833333333333333  0.5833333333333334  0.8333333333333334  1.157407e-03 
  0.0833333333333333  0.6666666666666666  0.0000000000000000  1.157407e-03 
  0.0833333333333333  0.6666666666666666  0.1666666666666667  1.157407e-03 
  0.0833333333333333  0.6666666666666666  0.3333333333333333  1.157407e-03 
  0.0833333333333333  0.6666666666666666  0.5000000000000000  1.157407e-03 
  0.0833333333333333  0.6666666666666666  0.6666666666666666  1.157407e-03 
  0.0833333333333333  0.6666666666666666  0.8333333333333334  1.157407e-03 
  0.0833333333333333  0.7500000000000000  0.0000000000000000  1.157407e-03 
  0.0833333333333333  0.7500000000000000  0.1666666666666667  1.157407e-03 
  0.0833333333333333  0.7500000000000000  0.3333333333333333  1.157407e-03 
  0.0833333333333333  0.7500000000000000  0.5000000000000000  1.157407e-03 
  0.0833333333333333  0.7500000000000000  0.6666666666666666  1.157407e-03 
  0.0833333333333333  0.7500000000000000  0.8333333333333334  1.157407e-03 
  0.0833333333333333  0.8333333333333334  0.0000000000000000  1.157407e-03 
  0.0833333333333333  0.8333333333333334  0.1666666666666667  1.157407e-03 
  0.0833333333333333  0.8333333333333334  0.3333333333333333  1.157407e-03 
  0.0833333333333333  0.8333333333333334  0.5000000000000000  1.157407e-03 
  0.0833333333333333  0.8333333333333334  0.6666666666666666  1.157407e-03 
  0.0833333333333333  0.8333333333333334  0.8333333333333334  1.157407e-03 
  0.0833333333333333  0.9166666666666666  0.0000000000000000  1.157407e-03 
  0.0833333333333333  0.9166666666666666  0.1666666666666667  1.157407e-03 
  0.0833333333333333  0.9166666666666666  0.3333333333333333  1.157407e-03 
  0.0833333333333333  0.9166666666666666  0.5000000000000000  1.157407e-03 
  0.0833333333333333  0.9166666666666666  0.6666666666666666  1.157407e-03 
  0.0833333333333333  0.9166666666666666  0.8333333333333334  1.157407e-03 
  0.1666666666666667  0.0000000000000000  0.0000000000000000  1.157407e-03 
  0.1666666666666667  0.0000000000000000  0.1666666666666667  1.157407e-03 
  0.1666666666666667  0.0000000000000000  0.3333333333333333  1.157407e-03 
  0.1666666666666667  0.0000000000000000  0.5000000000000000  1.157407e-03 
  0.1666666666666667  0.0000000000000000  0.6666666666666666  1.157407e-03 
  0.1666666666666667  0.0000000000000000  0.8333333333333334  1.157407e-03 
  0.1666666666666667  0.0833333333333333  0.0000000000000000  1.157407e-03 
  0.1666666666666667  0.0833333333333333  0.1666666666666667  1.157407e-03 
  0.1666666666666667  0.0833333333333333  0.3333333333333333  1.157407e-03 
  0.1666666666666667  0.0833333333333333  0.5000000000000000  1.157407e-03 
  0.1666666666666667  0.0833333333333333  0.6666666666666666  1.157407e-03 
  0.1666666666666667  0.0833333333333333  0.8333333333333334  1.157407e-03 
  0.1666666666666667  0.1666666666666667  0.0000000000000000  1.157407e-03 
  0.1666666666666667  0.1666666666666667  0.1666666666666667  1.157407e-03 
  0.1666666666666667  0.1666666666666667  0.3333333333333333  1.157407e-03 
  0.1666666666666667  0.1666666666666667  0.5000000000000000  1.157407e-03 
  0.1666666666666667  0.1666666666666667  0.6666666666666666  1.157407e-03 
  0.1666666666666667  0.1666666666666667  0.8333333333333334  1.157407e-03 
  0.1666666666666667  0.2500000000000000  0.0000000000000000  1.157407e-03 
  0.1666666666666667  0.2500000000000000  0.1666666666666667  1.157407e-03 
  0.1666666666666667  0.2500000000000000  0.3333333333333333  1.157407e-03 
  0.1666666666666667  0.2500000000000000  0.5000000000000000  1.157407e-03 
  0.1666666666666667  0.2500000000000000  0.6666666666666666  1.157407e-03 
  0.1666666666666667  0.2500000000000000  0.8333333333333334  1.157407e-03 
  0.1666666666666667  0.3333333333333333  0.0000000000000000  1.157407e-03 
  0.1666666666666667  0.3333333333333333  0.1666666666666667  1.157407e-03 
  0.1666666666666667  0.3333333333333333  0.3333333333333333  1.157407e-03 
  0.1666666666666667  0.3333333333333333  0.5000000000000000  1.157407e-03 
  0.1666666666666667  0.3333333333333333  0.6666666666666666  1.157407e-03 
  0.1666666666666667  0.3333333333333333  0.8333333333333334  1.157407e-03 
  0.1666666666666667  0.4166666666666667  0.0000000000000000  1.157407e-03 
  0.1666666666666667  0.4166666666666667  0.1666666666666667  1.157407e-03 
  0.1666666666666667  0.4166666666666667  0.3333333333333333  1.157407e-03 
  0.1666666666666667  0.4166666666666667  0.5000000000000000  1.157407e-03 
  0.1666666666666667  0.4166666666666667  0.6666666666666666  1.157407e-03 
  0.1666666666666667  0.4166666666666667  0.8333333333333334  1.157407e-03 
  0.1666666666666667  0.5000000000000000  0.0000000000000000  1.157407e-03 
  0.1666666666666667  0.5000000000000000  0.1666666666666667  1.157407e-03 
  0.1666666666666667  0.5000000000000000  0.3333333333333333  1.157407e-03 
  0.1666666666666667  0.5000000000000000  0.5000000000000000  1.157407e-03 
  0.1666666666666667  0.5000000000000000  0.6666666666666666  1.157407e-03 
  0.1666666666666667  0.5000000000000000  0.8333333333333334  1.157407e-03 
  0.1666666666666667  0.5833333333333334  0.0000000000000000  1.157407e-03 
  0.1666666666666667  0.5833333333333334  0.1666666666666667  1.157407e-03 
  0.1666666666666667  0.5833333333333334  0.3333333333333333  1.157407e-03 
  0.1666666666666667  0.5833333333333334  0.5000000000000000  1.157407e-03 
  0.1666666666666667  0.5833333333333334  0.6666666666666666  1.157407e-03 
  0.1666666666666667  0.5833333333333334  0.8333333333333334  1.157407e-03 
  0.1666666666666667  0.6666666666666666  0.0000000000000000  1.157407e-03 
  0.1666666666666667  0.6666666666666666  0.1666666666666667  1.157407e-03 
  0.1666666666666667  0.6666666666666666  0.3333333333333333  1.157407e-03 
  0.1666666666666667  0.6666666666666666  0.5000000000000000  1.157407e-03 
  0.1666666666666667  0.6666666666666666  0.6666666666666666  1.157407e-03 
  0.1666666666666667  0.6666666666666666  0.8333333333333334  1.157407e-03 
  0.1666666666666667  0.7500000000000000  0.0000000000000000  1.157407e-03 
  0.1666666666666667  0.7500000000000000  0.1666666666666667  1.157407e-03 
  0.1666666666666667  0.7500000000000000  0.3333333333333333  1.157407e-03 
  0.1666666666666667  0.7500000000000000  0.5000000000000000  1.157407e-03 
  0.1666666666666667  0.7500000000000000  0.6666666666666666  1.157407e-03 
  0.1666666666666667  0.7500000000000000  0.8333333333333334  1.157407e-03 
  0.1666666666666667  0.8333333333333334  0.0000000000000000  1.157407e-03 
  0.1666666666666667  0.8333333333333334  0.1666666666666667  1.157407e-03 
  0.1666666666666667  0.8333333333333334  0.3333333333333333  1.157407e-03 
  0.1666666666666667  0.8333333333333334  0.5000000000000000  1.157407e-03 
  0.1666666666666667  0.8333333333333334  0.6666666666666666  1.157407e-03 
  0.1666666666666667  0.8333333333333334  0.8333333333333334  1.157407e-03 
  0.1666666666666667  0.9166666666666666  0.0000000000000000  1.157407e-03 
  0.1666666666666667  0.9166666666666666  0.1666666666666667  1.157407e-03 
  0.1666666666666667  0.9166666666666666  0.3333333333333333  1.157407e-03 
  0.1666666666666667  0.9166666666666666  0.5000000000000000  1.157407e-03 
  0.1666666666666667  0.9166666666666666  0.6666666666666666  1.157407e-03 
  0.1666666666666667  0.9166666666666666  0.8333333333333334  1.157407e-03 
  0.2500000000000000  0.0000000000000000  0.0000000000000000  1.157407e-03 
  0.2500000000000000  0.0000000000000000  0.1666666666666667  1.157407e-03 
  0.2500000000000000  0.0000000000000000  0.3333333333333333  1.157407e-03 
  0.2500000000000000  0.0000000000000000  0.5000000000000000  1.157407e-03 
  0.2500000000000000  0.0000000000000000  0.6666666666666666  1.157407e-03 
  0.2500000000000000  0.0000000000000000  0.8333333333333334  1.157407e-03 
  0.2500000000000000  0.0833333333333333  0.0000000000000000  1.157407e-03 
  0.2500000000000000  0.0833333333333333  0.1666666666666667  1.157407e-03 
  0.2500000000000000  0.0833333333333333  0.3333333333333333  1.157407e-03 
  0.2500000000000000  0.0833333333333333  0.5000000000000000  1.157407e-03 
  0.2500000000000000  0.0833333333333333  0.6666666666666666  1.157407e-03 
  0.2500000000000000  0.0833333333333333  0.8333333333333334  1.157407e-03 
  0.2500000000000000  0.1666666666666667  0.0000000000000000  1.157407e-03 
  0.2500000000000000  0.1666666666666667  0.1666666666666667  1.157407e-03 
  0.2500000000000000  0.1666666666666667  0.3333333333333333  1.157407e-03 
  0.2500000000000000  0.1666666666666667  0.5000000000000000  1.157407e-03 
  0.2500000000000000  0.1666666666666667  0.6666666666666666  1.157407e-03 
  0.2500000000000000  0.1666666666666667  0.8333333333333334  1.157407e-03 
  0.2500000000000000  0.2500000000000000  0.0000000000000000  1.157407e-03 
  0.2500000000000000  0.2500000000000000  0.1666666666666667  1.157407e-03 
  0.2500000000000000  0.2500000000000000  0.3333333333333333  1.157407e-03 
  0.2500000000000000  0.2500000000000000  0.5000000000000000  1.157407e-03 
  0.2500000000000000  0.2500000000000000  0.6666666666666666  1.157407e-03 
  0.2500000000000000  0.2500000000000000  0.8333333333333334  1.157407e-03 
  0.2500000000000000  0.3333333333333333  0.0000000000000000  1.157407e-03 
  0.2500000000000000  0.3333333333333333  0.1666666666666667  1.157407e-03 
  0.2500000000000000  0.3333333333333333  0.3333333333333333  1.157407e-03 
  0.2500000000000000  0.3333333333333333  0.5000000000000000  1.157407e-03 
  0.2500000000000000  0.3333333333333333  0.6666666666666666  1.157407e-03 
  0.2500000000000000  0.3333333333333333  0.8333333333333334  1.157407e-03 
  0.2500000000000000  0.4166666666666667  0.0000000000000000  1.157407e-03 
  0.2500000000000000  0.4166666666666667  0.1666666666666667  1.157407e-03 
  0.2500000000000000  0.4166666666666667  0.3333333333333333  1.157407e-03 
  0.2500000000000000  0.4166666666666667  0.5000000000000000  1.157407e-03 
  0.2500000000000000  0.4166666666666667  0.6666666666666666  1.157407e-03 
  0.2500000000000000  0.4166666666666667  0.8333333333333334  1.157407e-03 
  0.2500000000000000  0.5000000000000000  0.0000000000000000  1.157407e-03 
  0.2500000000000000  0.5000000000000000  0.1666666666666667  1.157407e-03 
  0.2500000000000000  0.5000000000000000  0.3333333333333333  1.157407e-03 
  0.2500000000000000  0.5000000000000000  0.5000000000000000  1.157407e-03 
  0.2500000000000000  0.5000000000000000  0.6666666666666666  1.157407e-03 
  0.2500000000000000  0.5000000000000000  0.8333333333333334  1.157407e-03 
  0.2500000000000000  0.5833333333333334  0.0000000000000000  1.157407e-03 
  0.2500000000000000  0.5833333333333334  0.1666666666666667  1.157407e-03 
  0.2500000000000000  0.5833333333333334  0.3333333333333333  1.157407e-03 
  0.2500000000000000  0.5833333333333334  0.5000000000000000  1.157407e-03 
  0.2500000000000000  0.5833333333333334  0.6666666666666666  1.157407e-03 
  0.2500000000000000  0.5833333333333334  0.8333333333333334  1.157407e-03 
  0.2500000000000000  0.6666666666666666  0.0000000000000000  1.157407e-03 
  0.2500000000000000  0.6666666666666666  0.1666666666666667  1.157407e-03 
  0.2500000000000000  0.6666666666666666  0.3333333333333333  1.157407e-03 
  0.2500000000000000  0.6666666666666666  0.5000000000000000  1.157407e-03 
  0.2500000000000000  0.6666666666666666  0.6666666666666666  1.157407e-03 
  0.2500000000000000  0.6666666666666666  0.8333333333333334  1.157407e-03 
  0.2500000000000000  0.7500000000000000  0.0000000000000000  1.157407e-03 
  0.2500000000000000  0.7500000000000000  0.1666666666666667  1.157407e-03 
  0.2500000000000000  0.7500000000000000  0.3333333333333333  1.157407e-03 
  0.2500000000000000  0.7500000000000000  0.5000000000000000  1.157407e-03 
  0.2500000000000000  0.7500000000000000  0.6666666666666666  1.157407e-03 
  0.2500000000000000  0.7500000000000000  0.8333333333333334  1.157407e-03 
  0.2500000000000000  0.8333333333333334  0.0000000000000000  1.157407e-03 
  0.2500000000000000  0.8333333333333334  0.1666666666666667  1.157407e-03 
  0.2500000000000000  0.8333333333333334  0.3333333333333333  1.157407e-03 
  0.2500000000000000  0.8333333333333334  0.5000000000000000  1.157407e-03 
  0.2500000000000000  0.8333333333333334  0.6666666666666666  1.157407e-03 
  0.2500000000000000  0.8333333333333334  0.8333333333333334  1.157407e-03 
  0.2500000000000000  0.9166666666666666  0.0000000000000000  1.157407e-03 
  0.2500000000000000  0.9166666666666666  0.1666666666666667  1.157407e-03 
  0.2500000000000000  0.9166666666666666  0.3333333333333333  1.157407e-03 
  0.2500000000000000  0.9166666666666666  0.5000000000000000  1.157407e-03 
  0.2500000000000000  0.9166666666666666  0.6666666666666666  1.157407e-03 
  0.2500000000000000  0.9166666666666666  0.8333333333333334  1.157407e-03 
  0.3333333333333333  0.0000000000000000  0.0000000000000000  1.157407e-03 
  0.3333333333333333  0.0000000000000000  0.1666666666666667  1.157407e-03 
  0.3333333333333333  0.0000000000000000  0.3333333333333333  1.157407e-03 
  0.3333333333333333  0.0000000000000000  0.5000000000000000  1.157407e-03 
  0.3333333333333333  0.0000000000000000  0.6666666666666666  1.157407e-03 
  0.3333333333333333  0.0000000000000000  0.8333333333333334  1.157407e-03 
  0.3333333333333333  0.0833333333333333  0.0000000000000000  1.157407e-03 
  0.3333333333333333  0.0833333333333333  0.1666666666666667  1.157407e-03 
  0.3333333333333333  0.0833333333333333  0.3333333333333333  1.157407e-03 
  0.3333333333333333  0.0833333333333333  0.5000000000000000  1.157407e-03 
  0.3333333333333333  0.0833333333333333  0.6666666666666666  1.157407e-03 
  0.3333333333333333  0.0833333333333333  0.8333333333333334  1.157407e-03 
  0.3333333333333333  0.1666666666666667  0.0000000000000000  1.157407e-03 
  0.3333333333333333  0.1666666666666667  0.1666666666666667  1.157407e-03 
  0.3333333333333333  0.1666666666666667  0.3333333333333333  1.157407e-03 
  0.3333333333333333  0.1666666666666667  0.5000000000000000  1.157407e-03 
  0.3333333333333333  0.1666666666666667  0.6666666666666666  1.157407e-03 
  0.3333333333333333  0.1666666666666667  0.8333333333333334  1.157407e-03 
  0.3333333333333333  0.2500000000000000  0.0000000000000000  1.157407e-03 
  0.3333333333333333  0.2500000000000000  0.1666666666666667  1.157407e-03 
  0.3333333333333333  0.2500000000000000  0.3333333333333333  1.157407e-03 
  0.3333333333333333  0.2500000000000000  0.5000000000000000  1.157407e-03 
  0.3333333333333333  0.2500000000000000  0.6666666666666666  1.157407e-03 
  0.3333333333333333  0.2500000000000000  0.8333333333333334  1.157407e-03 
  0.3333333333333333  0.3333333333333333  0.0000000000000000  1.157407e-03 
  0.3333333333333333  0.3333333333333333  0.1666666666666667  1.157407e-03 
  0.3333333333333333  0.3333333333333333  0.3333333333333333  1.157407e-03 
  0.3333333333333333  0.3333333333333333  0.5000000000000000  1.157407e-03 
  0.3333333333333333  0.3333333333333333  0.6666666666666666  1.157407e-03 
  0.3333333333333333  0.3333333333333333  0.8333333333333334  1.157407e-03 
  0.3333333333333333  0.4166666666666667  0.0000000000000000  1.157407e-03 
  0.3333333333333333  0.4166666666666667  0.1666666666666667  1.157407e-03 
  0.3333333333333333  0.4166666666666667  0.3333333333333333  1.157407e-03 
  0.3333333333333333  0.4166666666666667  0.5000000000000000  1.157407e-03 
  0.3333333333333333  0.4166666666666667  0.6666666666666666  1.157407e-03 
  0.3333333333333333  0.4166666666666667  0.8333333333333334  1.157407e-03 
  0.3333333333333333  0.5000000000000000  0.0000000000000000  1.157407e-03 
  0.3333333333333333  0.5000000000000000  0.1666666666666667  1.157407e-03 
  0.3333333333333333  0.5000000000000000  0.3333333333333333  1.157407e-03 
  0.3333333333333333  0.5000000000000000  0.5000000000000000  1.157407e-03 
  0.3333333333333333  0.5000000000000000  0.6666666666666666  1.157407e-03 
  0.3333333333333333  0.5000000000000000  0.8333333333333334  1.157407e-03 
  0.3333333333333333  0.5833333333333334  0.0000000000000000  1.157407e-03 
  0.3333333333333333  0.5833333333333334  0.1666666666666667  1.157407e-03 
  0.3333333333333333  0.5833333333333334  0.3333333333333333  1.157407e-03 
  0.3333333333333333  0.5833333333333334  0.5000000000000000  1.157407e-03 
  0.3333333333333333  0.5833333333333334  0.6666666666666666  1.157407e-03 
  0.3333333333333333  0.5833333333333334  0.8333333333333334  1.157407e-03 
  0.3333333333333333  0.6666666666666666  0.0000000000000000  1.157407e-03 
  0.3333333333333333  0.6666666666666666  0.1666666666666667  1.157407e-03 
  0.3333333333333333  0.6666666666666666  0.3333333333333333  1.157407e-03 
  0.3333333333333333  0.6666666666666666  0.5000000000000000  1.157407e-03 
  0.3333333333333333  0.6666666666666666  0.6666666666666666  1.157407e-03 
  0.3333333333333333  0.6666666666666666  0.8333333333333334  1.157407e-03 
  0.3333333333333333  0.7500000000000000  0.0000000000000000  1.157407e-03 
  0.3333333333333333  0.7500000000000000  0.1666666666666667  1.157407e-03 
  0.3333333333333333  0.7500000000000000  0.3333333333333333  1.157407e-03 
  0.3333333333333333  0.7500000000000000  0.5000000000000000  1.157407e-03 
  0.3333333333333333  0.7500000000000000  0.6666666666666666  1.157407e-03 
  0.3333333333333333  0.7500000000000000  0.8333333333333334  1.157407e-03 
  0.3333333333333333  0.8333333333333334  0.0000000000000000  1.157407e-03 
  0.3333333333333333  0.8333333333333334  0.1666666666666667  1.157407e-03 
  0.3333333333333333  0.8333333333333334  0.3333333333333333  1.157407e-03 
  0.3333333333333333  0.8333333333333334  0.5000000000000000  1.157407e-03 
  0.3333333333333333  0.8333333333333334  0.6666666666666666  1.157407e-03 
  0.3333333333333333  0.8333333333333334  0.8333333333333334  1.157407e-03 
  0.3333333333333333  0.9166666666666666  0.0000000000000000  1.157407e-03 
  0.3333333333333333  0.9166666666666666  0.1666666666666667  1.157407e-03 
  0.3333333333333333  0.9166666666666666  0.3333333333333333  1.157407e-03 
  0.3333333333333333  0.9166666666666666  0.5000000000000000  1.157407e-03 
  0.3333333333333333  0.9166666666666666  0.6666666666666666  1.157407e-03 
  0.3333333333333333  0.9166666666666666  0.8333333333333334  1.157407e-03 
  0.4166666666666667  0.0000000000000000  0.0000000000000000  1.157407e-03 
  0.4166666666666667  0.0000000000000000  0.1666666666666667  1.157407e-03 
  0.4166666666666667  0.0000000000000000  0.3333333333333333  1.157407e-03 
  0.4166666666666667  0.0000000000000000  0.5000000000000000  1.157407e-03 
  0.4166666666666667  0.0000000000000000  0.6666666666666666  1.157407e-03 
  0.4166666666666667  0.0000000000000000  0.8333333333333334  1.157407e-03 
  0.4166666666666667  0.0833333333333333  0.0000000000000000  1.157407e-03 
  0.4166666666666667  0.0833333333333333  0.1666666666666667  1.157407e-03 
  0.4166666666666667  0.0833333333333333  0.3333333333333333  1.157407e-03 
  0.4166666666666667  0.0833333333333333  0.5000000000000000  1.157407e-03 
  0.4166666666666667  0.0833333333333333  0.6666666666666666  1.157407e-03 
  0.4166666666666667  0.0833333333333333  0.8333333333333334  1.157407e-03 
  0.4166666666666667  0.1666666666666667  0.0000000000000000  1.157407e-03 
  0.4166666666666667  0.1666666666666667  0.1666666666666667  1.157407e-03 
  0.4166666666666667  0.1666666666666667  0.3333333333333333  1.157407e-03 
  0.4166666666666667  0.1666666666666667  0.5000000000000000  1.157407e-03 
  0.4166666666666667  0.1666666666666667  0.6666666666666666  1.157407e-03 
  0.4166666666666667  0.1666666666666667  0.8333333333333334  1.157407e-03 
  0.4166666666666667  0.2500000000000000  0.0000000000000000  1.157407e-03 
  0.4166666666666667  0.2500000000000000  0.1666666666666667  1.157407e-03 
  0.4166666666666667  0.2500000000000000  0.3333333333333333  1.157407e-03 
  0.4166666666666667  0.2500000000000000  0.5000000000000000  1.157407e-03 
  0.4166666666666667  0.2500000000000000  0.6666666666666666  1.157407e-03 